
timestep 0.001

min_style cg
minimize 1.0e-4 1.0e-6 1000 10000
PPPM initialization ...
WARNING: System is not charge neutral, net charge = -578.4 (src/kspace.cpp:327)
  using 12-bit tables for long-range coulomb (src/kspace.cpp:342)
  G vector (1/distance) = 0.36885641
  grid = 54 48 64
  stencil order = 5
  estimated absolute RMS force accuracy = 0.0017859204
  estimated relative force accuracy = 0.00012402531
  using double precision FFTW3
  3d grid and FFT values/proc = 34336 20736
Generated 0 of 6 mixed pair_coeff terms from geometric mixing rule
Neighbor list info ...
  update every 1 steps, delay 0 steps, check yes
  max neighbors/atom: 2000, page size: 100000
  master list distance cutoff = 8.3
  ghost atom cutoff = 8.3
  binsize = 4.15, bins = 14 12 18
  1 neighbor lists, perpetual/occasional/extra = 1 0 0
  (1) pair buck/coul/long, perpetual
      attributes: half, newton on
      pair build: half/bin/atomonly/newton
      stencil: half/bin/3d
      bin: standard
Per MPI rank memory allocation (min/avg/max) = 8.305 | 8.306 | 8.307 Mbytes
   Step          Temp          E_pair         E_mol          TotEng         Press     
         0   1e-05         -218738.45      0             -218738.45     -3744.5178    
         5   1e-05         -219119.38      0             -219119.38     -4881.074     
Loop time of 0.12273 on 8 procs for 5 steps with 11348 atoms

98.0% CPU use with 8 MPI tasks x 1 OpenMP threads

Minimization stats:
  Stopping criterion = energy tolerance
  Energy initial, next-to-last, final = 
     -218738.454332904  -219099.153880999  -219119.382275512
  Force two-norm initial, final = 189.99045 33.92732
  Force max component initial, final = 6.8985989 2.772675
  Final line search alpha, max atom move = 0.050802569 0.14085901
  Iterations, force evaluations = 5 10

MPI task timing breakdown:
Section |  min time  |  avg time  |  max time  |%varavg| %total
---------------------------------------------------------------
Pair    | 0.03548    | 0.045816   | 0.056643   |   3.1 | 37.33
Kspace  | 0.056928   | 0.068604   | 0.079527   |   2.8 | 55.90
Neigh   | 0.0043534  | 0.0050316  | 0.0057588  |   0.7 |  4.10
Comm    | 0.0020969  | 0.002238   | 0.0023466  |   0.2 |  1.82
Output  | 0          | 0          | 0          |   0.0 |  0.00
Modify  | 0          | 0          | 0          |   0.0 |  0.00
Other   |            | 0.00104    |            |       |  0.85

Nlocal:         1418.5 ave        1445 max        1403 min
Histogram: 2 1 1 1 1 0 1 0 0 1
Nghost:        3899.25 ave        3920 max        3883 min
Histogram: 1 1 1 1 0 2 0 1 0 1
Neighs:         104982 ave      110132 max      102843 min
Histogram: 2 1 2 1 1 0 0 0 0 1

Total # of neighbors = 839860
Ave neighs/atom = 74.009517
Neighbor list builds = 2
Dangerous builds = 0

fix                 1 all npt temp ${Tmp} ${Tmp} 0.1 iso 1.0 1.0 1.0
fix                 1 all npt temp 320 ${Tmp} 0.1 iso 1.0 1.0 1.0
fix                 1 all npt temp 320 320 0.1 iso 1.0 1.0 1.0
dump                1 all atom 100 dump00_${Tmp}.adp
dump                1 all atom 100 dump00_320.adp
thermo              100
run                 23000
PPPM initialization ...
  using 12-bit tables for long-range coulomb (src/kspace.cpp:342)
  G vector (1/distance) = 0.36885641
  grid = 54 48 64
  stencil order = 5
  estimated absolute RMS force accuracy = 0.0017859204
  estimated relative force accuracy = 0.00012402531
  using double precision FFTW3
  3d grid and FFT values/proc = 34336 20736
Generated 0 of 6 mixed pair_coeff terms from geometric mixing rule
Per MPI rank memory allocation (min/avg/max) = 7.18 | 7.181 | 7.182 Mbytes
   Step          Temp          E_pair         E_mol          TotEng         Press          Volume    
         5   1e-05         -219119.38      0             -219119.38     -4881.074       191103.28    
       100   34.857335     -219167.56      0             -219116.43      1335.7074      189610.09    
       200   37.025143     -219156.52      0             -219102.21     -158.41656      189680.95    
       300   41.07284      -219145.95      0             -219085.71      255.39944      189483.06    
       400   49.764022     -219137.42      0             -219064.43     -14.703825      189428.45    
       500   58.081334     -219123.13      0             -219037.94      80.652485      189438.48    
       600   69.920782     -219109.09      0             -219006.54      211.13018      189286.25    
       700   81.964612     -219088.27      0             -218968.05     -127.03006      189270.91    
       800   99.338443     -219068.11      0             -218922.4      -364.01463      189364.1     
       900   116.40759     -219039.35      0             -218868.61      429.1667       189108.98    
      1000   136.93315     -219006.46      0             -218805.61     -475.38197      189221.16    
      1100   161.86267     -218970.31      0             -218732.9      -1.9531176      189213.23    
      1200   189.54104     -218928.59      0             -218650.59      326.25555      189525.6     
      1300   220.15098     -218883.09      0             -218560.19      48.485031      189739.09    
      1400   251.17719     -218835.26      0             -218466.85      150.46563      189753.01    
      1500   280.89239     -218784.33      0             -218372.34      251.19427      190112.06    
      1600   310.72846     -218742.47      0             -218286.72      485.961        190620.75    
      1700   331.62004     -218709.7       0             -218223.3      -88.703929      190943.87    
      1800   333.39895     -218685.44      0             -218196.44     -995.34951      191399.45    
      1900   329.7363      -218698.59      0             -218214.96      216.67393      191369.94    
      2000   318.73594     -218722.73      0             -218255.24     -874.59136      191445.58    
      2100   308.10064     -218737.93      0             -218286.03      281.92899      191099.83    
      2200   307.36943     -218739.43      0             -218288.61     -725.59483      190789.33    
      2300   318.81507     -218732.87      0             -218265.26      678.3028       190212.24    
      2400   324.67317     -218711.81      0             -218235.61     -502.0525       190316.52    
      2500   329.34204     -218710.4       0             -218227.34      480.28517      189674.02    
      2600   324.28014     -218719.04      0             -218243.42     -6.4682805      189785.46    
      2700   314.96519     -218732.67      0             -218270.71      755.62767      189651.73    
      2800   312.84224     -218741.43      0             -218282.58     -364.85224      190026.02    
      2900   312.99688     -218733.88      0             -218274.8       495.4209       189871.58    
      3000   322.47975     -218724.93      0             -218251.94      21.890934      189845.86    
      3100   325.14981     -218710.54      0             -218233.63      1719.3623      189762.96    
      3200   326.73595     -218714.44      0             -218235.21     -534.37355      190200.37    
      3300   318.2501      -218724.04      0             -218257.25      338.41348      190237.66    
      3400   315.43739     -218737.25      0             -218274.59     -181.5217       190637.58    
      3500   314.96897     -218737.2       0             -218275.23     -1182.02        190859.82    
      3600   319.9307      -218727.25      0             -218258         62.400386      191000.52    
      3700   325.60534     -218714.97      0             -218237.4      -256.24271      191205.65    
      3800   324.35338     -218709.47      0             -218233.74     -573.93518      191092.91    
      3900   326.41463     -218724.21      0             -218245.45     -383.63573      191057.61    
      4000   317.97409     -218732.84      0             -218266.46     -1270.2393      190918.94    
      4100   312.88947     -218739.41      0             -218280.49      48.671744      190356.06    
      4200   312.74662     -218733.24      0             -218274.53     -503.07529      190438.92    
      4300   320.90313     -218726.13      0             -218255.45      617.31771      190359.06    
      4400   324.33996     -218717.93      0             -218242.22     -233.07775      190100.98    
      4500   321.83041     -218718.02      0             -218245.99      25.901756      189959.73    
      4600   320.27125     -218730.98      0             -218261.23     -549.96118      190032.12    
      4700   316.08555     -218738.62      0             -218275.02      85.18929       190072.22    
      4800   312.3408      -218733.02      0             -218274.91     -258.43933      189976.93    
      4900   323.0615      -218734.81      0             -218260.97     -162.96629      189964.36    
      5000   325.75228     -218724.15      0             -218246.36      520.8549       190155.18    
      5100   323.88844     -218719.23      0             -218244.18      732.53072      190245.3     
      5200   320.56624     -218723.73      0             -218253.55     -400.15179      190632.29    
      5300   318.73305     -218736.99      0             -218269.5       514.83144      190531.11    
      5400   312.94375     -218733.95      0             -218274.95      248.34708      190579.33    
      5500   318.94007     -218732.17      0             -218264.37     -354.07363      190704.21    
      5600   324.71774     -218725.68      0             -218249.41     -116.30784      190765.62    
      5700   324.53641     -218718.64      0             -218242.63     -687.59967      191192.02    
      5800   322.57851     -218721.45      0             -218248.32      640.02918      191169.04    
      5900   321.76368     -218732.85      0             -218260.91      448.85733      191141.39    
      6000   316.48307     -218733.04      0             -218268.85     -1257.7144      191144.39    
      6100   315.87652     -218732.35      0             -218269.05      435.42171      190530.01    
      6200   318.96152     -218727.98      0             -218260.15     -315.46961      190518.39    
      6300   317.97667     -218717.48      0             -218251.1      -188.49653      190349.91    
      6400   322.88729     -218723.01      0             -218249.42     -641.60736      190083.4     
      6500   321.87244     -218729.04      0             -218256.94      477.05945      189915.38    
      6600   315.99188     -218729.77      0             -218266.3      -900.56428      190329.66    
      6700   312.45254     -218729.96      0             -218271.68      271.33691      189958.44    
      6800   321.57836     -218735.72      0             -218264.05     -426.28343      190239.87    
      6900   321.11817     -218725.85      0             -218254.86      514.43433      190398.35    
      7000   324.60332     -218724.76      0             -218248.65     -508.16279      190743.96    
      7100   319.95007     -218723.12      0             -218253.85      176.46218      190459.74    
      7200   321.95843     -218733.84      0             -218261.61     -499.02317      190558.55    
      7300   313.79842     -218728.15      0             -218267.9      -103.12004      190723.43    
      7400   316.88328     -218730.01      0             -218265.23      168.9179       190931.73    
      7500   322.68284     -218730.88      0             -218257.6       148.67006      190897.33    
      7600   319.05198     -218719.71      0             -218251.75      93.681783      190861.66    
      7700   318.95474     -218718.83      0             -218251.01     -1288.6572      190974.22    
      7800   320.16584     -218728.28      0             -218258.69     -28.943386      190618.63    
      7900   319.98376     -218733.63      0             -218264.3      -1335.9291      190804.83    
      8000   315.81004     -218729.57      0             -218266.37      194.7914       190505.51    
      8100   318.19016     -218727.3       0             -218260.6      -485.77732      190606.95    
      8200   319.75154     -218723.14      0             -218254.15     -1844.0594      190799.8     
      8300   322.59538     -218725.12      0             -218251.96      655.6593       190202.12    
      8400   322.91669     -218728.44      0             -218254.82      1007.1943      189970.18    
      8500   318.27825     -218727.06      0             -218260.23     -252.40097      190273.25    
      8600   317.63587     -218732.56      0             -218266.68     -468.52424      190346.97    
      8700   315.95237     -218732.04      0             -218268.63     -155.40904      190280.01    
      8800   317.67725     -218728.88      0             -218262.94      180.03435      190292.83    
      8900   319.82342     -218724.33      0             -218255.24      448.44256      190355.16    
      9000   320.79105     -218722.6       0             -218252.09      46.600543      190547.56    
      9100   320.02938     -218726.33      0             -218256.94      957.43766      190318.9     
      9200   318.01742     -218729.12      0             -218262.67      544.07177      190522.87    
      9300   320.55128     -218736.61      0             -218266.45     -398.45669      190604.39    
      9400   318.59373     -218732.31      0             -218265.03     -249.89398      190537.74    
      9500   318.06825     -218723.91      0             -218257.4      -398.4459       190762.65    
      9600   322.07016     -218723.8       0             -218251.41     -959.69521      190776.95    
      9700   319.27768     -218720.01      0             -218251.72     -1131.5253      190760.49    
      9800   320.61171     -218728.99      0             -218258.74      94.54492       190501.96    
      9900   319.82088     -218734.01      0             -218264.93     -1128.5663      190613.44    
     10000   317.00872     -218731.05      0             -218266.09     -687.57096      190455.46    
     10100   324.72799     -218736.24      0             -218259.95     -934.50512      190687.56    
     10200   322.73487     -218730.56      0             -218257.2      -398.79632      190381.91    
     10300   321.28983     -218727.81      0             -218256.57      33.485788      190242.26    
     10400   321.5744      -218731.25      0             -218259.6       556.44568      190052.36    
     10500   316.03869     -218725.52      0             -218261.99     -605.38702      190395.62    
     10600   319.18535     -218732.4       0             -218264.24     -420.51305      190471.7     
     10700   317.41046     -218729.12      0             -218263.57     -682.15185      190329.56    
     10800   321.27348     -218731.61      0             -218260.39     -253.61784      190465.86    
     10900   321.32742     -218728.29      0             -218257        -199.84148      190697.92    
     11000   321.07515     -218728.48      0             -218257.56      127.2528       190587.42    
     11100   317.1304      -218724.7       0             -218259.56      149.92152      190594.15    
     11200   321.19884     -218732.81      0             -218261.71     -626.03294      190695.07    
     11300   316.96628     -218728.93      0             -218264.03      580.43844      190345.9     
     11400   318.10628     -218728.12      0             -218261.55     -340.24808      190576.14    
     11500   319.0811      -218725.46      0             -218257.45      729.87449      190547.74    
     11600   321.78899     -218727.86      0             -218255.88      69.432317      190529.92    
     11700   320.00263     -218727.34      0             -218257.99     -229.85603      190601.94    
     11800   317.52309     -218727.93      0             -218262.22      114.64945      190492.3     
     11900   318.47893     -218731.88      0             -218264.76     -247.17374      190430.97    
     12000   322.377       -218734.99      0             -218262.16     -304.30554      190436.8     
     12100   319.28929     -218727.19      0             -218258.88     -280.3715       190337.37    
     12200   323.4151      -218732.57      0             -218258.21     -57.222693      190258.78    
     12300   318.88684     -218727.98      0             -218260.26      145.25059      190334.68    
     12400   320.76126     -218732.49      0             -218262.02      421.1944       190347.51    
     12500   317.59943     -218728.36      0             -218262.53      950.50963      190353.54    
     12600   318.45343     -218727.98      0             -218260.9       1733.8749      190281.64    
     12700   319.17095     -218725.49      0             -218257.36     -253.0914       190612.72    
     12800   321.04023     -218728.65      0             -218257.77      815.35072      190449.82    
     12900   318.23611     -218724.06      0             -218257.3      -1675.348       190777.11    
     13000   320.84932     -218731.29      0             -218260.7       228.77148      190363.82    
     13100   317.38809     -218726.64      0             -218261.12     -1439.6812      190723.77    
     13200   318.11296     -218728.63      0             -218262.05      835.55144      190464.51    
     13300   317.32839     -218725.29      0             -218259.86      779.46715      190555.78    
     13400   317.43274     -218722.82      0             -218257.24      319.37072      190525.1     
     13500   320.74821     -218727.23      0             -218256.78      7.8619944      190443.11    
     13600   319.45339     -218728.5       0             -218259.95     -841.32188      190476.63    
     13700   320.23601     -218734.53      0             -218264.83      112.3923       190248.33    
     13800   318.24422     -218730.84      0             -218264.07      12.426302      190478.08    
     13900   321.64232     -218732.77      0             -218261.01     -72.774588      190279.82    
     14000   322.79677     -218729.1       0             -218255.65     -1296.6713      190514.29    
     14100   321.90603     -218728.77      0             -218256.62      407.49604      190250.02    
     14200   318.6878      -218728.35      0             -218260.93     -13.040104      190266.4     
     14300   318.53882     -218731.8       0             -218264.59     -263.57312      190355.4     
     14400   317.84073     -218731.33      0             -218265.15     -917.93493      190396.55    
     14500   319.58016     -218729.71      0             -218260.97     -42.241662      190408.18    
     14600   321.26255     -218726.42      0             -218255.22     -344.55277      190526.66    
     14700   320.26307     -218724.13      0             -218254.39     -27.16492       190531.87    
     14800   319.14901     -218726.65      0             -218258.55     -1160.4022      190763.65    
     14900   317.47402     -218730.44      0             -218264.79      268.30898      190559.37    
     15000   317.98917     -218732.1       0             -218265.7       203.85447      190550.31    
     15100   319.66753     -218730.29      0             -218261.43     -1098.2231      190715.14    
     15200   322.518       -218730.24      0             -218257.2      -460.92003      190563.93    
     15300   323.59662     -218729.35      0             -218254.73     -127.41457      190482.92    
     15400   324.15153     -218732.63      0             -218257.19     -280.1059       190369.32    
     15500   318.53073     -218729.19      0             -218261.99     -83.031993      190312.63    
     15600   320.43105     -218736.4       0             -218266.41     -440.80517      190222.03    
     15700   320.46347     -218735.44      0             -218265.41     -137.50851      190103.02    
     15800   322.46611     -218732.56      0             -218259.59     -1071.2317      190320.31    
     15900   320.70636     -218727.33      0             -218256.94      197.43358      189992.07    
     16000   319.6614      -218725.33      0             -218256.48     -922.21334      190148.8     
     16100   320.22189     -218729.86      0             -218260.18      392.51         190237.72    
     16200   317.85109     -218729.03      0             -218262.83      263.12801      190463.72    
     16300   319.12364     -218732.12      0             -218264.06     -391.46086      190545.4     
     16400   323.05394     -218735.29      0             -218261.46     -888.17727      190655.95    
     16500   321.78929     -218729.11      0             -218257.14     -940.60667      190630.9     
     16600   323.77887     -218728.81      0             -218253.92     -1295.7173      190607.18    
     16700   321.20569     -218727.06      0             -218255.95     -879.49468      190803.76    
     16800   316.90914     -218727.21      0             -218262.39      784.90116      190473.6     
     16900   318.88638     -218732.94      0             -218265.22     -544.88435      190638.01    
     17000   318.4365      -218731.65      0             -218264.6      -182.89702      190727.15    
     17100   318.84458     -218728.16      0             -218260.51     -420.10957      190728.07    
     17200   320.32725     -218725.03      0             -218255.2       42.560132      190602.06    
     17300   323.32835     -218728.34      0             -218254.11     -128.56489      190517.24    
     17400   319.8154      -218727.98      0             -218258.9      -165.41283      190331.39    
     17500   318.66186     -218732.49      0             -218265.1      -613.30426      190265.98    
     17600   314.86772     -218730.6       0             -218268.78      49.979797      190189.46    
     17700   320.49867     -218733.76      0             -218263.68     -45.575113      190357.61    
     17800   319.80409     -218725.37      0             -218256.31     -433.37692      190454.51    
     17900   323.72883     -218727.36      0             -218252.54     -314.6829       190361.77    
     18000   321.07902     -218726.19      0             -218255.26     -1276.2973      190377.06    
     18100   319.85365     -218730.73      0             -218261.6      -1136.5169      190441.64    
     18200   319.50771     -218735.58      0             -218266.95     -746.23772      190520.33    
     18300   317.35162     -218733.38      0             -218267.91     -258.42131      190382.26    
     18400   322.11942     -218733.63      0             -218261.17     -312.10745      190413.46    
     18500   320.64318     -218725.25      0             -218254.96     -744.17475      190507.36    
     18600   321.91156     -218725.98      0             -218253.83     -815.96814      190526.89    
     18700   319.44107     -218725.53      0             -218257        -320.56987      190804.16    
     18800   317.61798     -218729.86      0             -218264.01      484.20304      190532.26    
     18900   319.52594     -218734.13      0             -218265.47     -340.74332      190694.44    
     19000   319.11085     -218730.71      0             -218262.66      169.39972      190515.94    
     19100   319.34978     -218727.52      0             -218259.12      1077.9458      190355.7     
     19200   321.25266     -218727.02      0             -218255.84     -531.42002      190477.33    
     19300   322.28136     -218728.94      0             -218256.25     -778.86498      190329.03    
     19400   324.20022     -218736.64      0             -218261.14      348.96078      190172.93    
     19500   316.37452     -218730.26      0             -218266.23     -642.95501      190191.21    
     19600   319.28931     -218735.11      0             -218266.8       208.38468      190089.74    
     19700   318.8451      -218727.55      0             -218259.9      -1727.1105      190601.64    
     19800   317.44441     -218722.66      0             -218257.06     -852.29739      190152.05    
     19900   320.2789      -218726.72      0             -218256.96      331.0677       190149.98    
     20000   323.00138     -218733.61      0             -218259.86     -897.20869      190617.74    
     20100   317.25997     -218731.35      0             -218266.02      746.17836      190297.67    
     20200   316.63878     -218729.95      0             -218265.54     -1376.7374      190638.34    
     20300   316.72206     -218725.27      0             -218260.73     -164.64725      190518.03    
     20400   320.0624      -218725.39      0             -218255.95     -396.25022      190560.48    
     20500   324.68697     -218730.78      0             -218254.56      63.687635      190576.75    
     20600   321.86964     -218730.67      0             -218258.58     -341.33372      190413.13    
     20700   317.69235     -218730         0             -218264.04      1371.7577      190311.73    
     20800   319.79636     -218734.12      0             -218265.07      198.71643      190641.03    
     20900   319.61112     -218732.38      0             -218263.6       713.4524       190463.14    
     21000   321.64262     -218730.38      0             -218258.62     -360.6026       190604.86    
     21100   319.44131     -218724.69      0             -218256.16     -97.171386      190436.98    
     21200   320.52737     -218726.69      0             -218256.57     -272.15818      190375.07    
     21300   320.84281     -218731.63      0             -218261.05     -136.48384      190380.48    
     21400   317.72631     -218730.56      0             -218264.55     -27.345716      190456.36    
     21500   318.88155     -218732.87      0             -218265.16      1005.8271      190209.45    
     21600   320.97185     -218731.12      0             -218260.34      427.63728      190404.55    
     21700   320.21136     -218726.16      0             -218256.5       418.25042      190277.45    
     21800   319.8218      -218725.83      0             -218256.74      571.76692      190339.49    
     21900   319.92091     -218729.19      0             -218259.95     -174.78771      190442.41    
     22000   321.54558     -218735.97      0             -218264.36      544.59381      190252.58    
     22100   313.91514     -218723.72      0             -218263.3      -1018.3236      190857.62    
     22200   317.41413     -218726.99      0             -218261.43      294.02152      190536.75    
     22300   319.67783     -218726.1       0             -218257.22      200.12607      190680.82    
     22400   322.94014     -218728.51      0             -218254.85     -483.81103      190783.02    
     22500   321.16858     -218728.51      0             -218257.44      327.68369      190608.75    
     22600   323.3532      -218736.15      0             -218261.88      114.20623      190435.29    
     22700   317.20932     -218729.84      0             -218264.58     -440.26768      190589.33    
     22800   317.94112     -218730.62      0             -218264.29     -924.3717       190464.35    
     22900   320.13168     -218730.51      0             -218260.97     -230.89009      190110.7     
     23000   320.94083     -218728.84      0             -218258.11     -727.88234      190283.25    
     23005   322.51125     -218731.11      0             -218258.07     -352.44419      190279.83    
Loop time of 345.563 on 8 procs for 23000 steps with 11348 atoms

Performance: 5.751 ns/day, 4.173 hours/ns, 66.558 timesteps/s
97.4% CPU use with 8 MPI tasks x 1 OpenMP threads

MPI task timing breakdown:
Section |  min time  |  avg time  |  max time  |%varavg| %total
---------------------------------------------------------------
Pair    | 81.019     | 82.802     | 84.86      |  15.5 | 23.96
Kspace  | 169.19     | 171.22     | 172.91     |  11.3 | 49.55
Neigh   | 9.3282     | 9.6105     | 9.9334     |   6.3 |  2.78
Comm    | 7.2835     | 7.5057     | 7.7067     |   5.0 |  2.17
Output  | 0.45159    | 0.45335    | 0.4624     |   0.5 |  0.13
Modify  | 58.747     | 60.145     | 61.054     |   8.7 | 17.40
Other   |            | 13.83      |            |       |  4.00

Nlocal:         1418.5 ave        1432 max        1405 min
Histogram: 2 0 1 0 0 1 1 1 1 1
Nghost:        3910.12 ave        3925 max        3878 min
Histogram: 1 0 0 0 1 0 1 1 2 2
Neighs:         105267 ave      109361 max      103354 min
Histogram: 3 0 1 2 1 0 0 0 0 1

Total # of neighbors = 842136
Ave neighs/atom = 74.210081
Neighbor list builds = 3552
Dangerous builds = 0
unfix 1

timestep 0.001
fix                 1 all nvt temp ${Tmp} ${Tmp} 0.1
fix                 1 all nvt temp 320 ${Tmp} 0.1
fix                 1 all nvt temp 320 320 0.1
compute             myRDF all rdf 100
fix                 RDF all ave/time 100 1 100 c_myRDF[*] file lammps00_${Tmp}.rdf mode vector
fix                 RDF all ave/time 100 1 100 c_myRDF[*] file lammps00_320.rdf mode vector
run                 345000
PPPM initialization ...
  using 12-bit tables for long-range coulomb (src/kspace.cpp:342)
  G vector (1/distance) = 0.3689864
  grid = 54 48 64
  stencil order = 5
  estimated absolute RMS force accuracy = 0.0017783949
  estimated relative force accuracy = 0.00012350269
  using double precision FFTW3
  3d grid and FFT values/proc = 34336 20736
Generated 0 of 6 mixed pair_coeff terms from geometric mixing rule
Neighbor list info ...
  update every 1 steps, delay 0 steps, check yes
  max neighbors/atom: 2000, page size: 100000
  master list distance cutoff = 8.3
  ghost atom cutoff = 8.3
  binsize = 4.15, bins = 14 12 18
  2 neighbor lists, perpetual/occasional/extra = 1 1 0
  (1) pair buck/coul/long, perpetual
      attributes: half, newton on
      pair build: half/bin/atomonly/newton
      stencil: half/bin/3d
      bin: standard
  (2) compute rdf, occasional, copy from (1)
      attributes: half, newton on
      pair build: copy
      stencil: none
      bin: none
Per MPI rank memory allocation (min/avg/max) = 8.236 | 8.237 | 8.238 Mbytes
   Step          Temp          E_pair         E_mol          TotEng         Press     
     23005   322.51125     -218731.11      0             -218258.08     -354.26049    
     23100   319.88408     -218728.09      0             -218258.91      113.9499     
     23200   318.28798     -218732.68      0             -218265.84      401.80396    
     23300   314.58321     -218733.02      0             -218271.62      476.50235    
     23400   320.23459     -218737.32      0             -218267.62      461.77012    
     23500   320.9301      -218734.35      0             -218263.63      761.52064    
     23600   316.76863     -218726.25      0             -218261.64      608.83218    
     23700   321.00583     -218730.22      0             -218259.39      690.54743    
     23800   321.72744     -218728.4       0             -218256.52     -152.76059    
     23900   321.20218     -218726.97      0             -218255.86     -236.33779    
     24000   318.69228     -218727.55      0             -218260.12      947.42277    
     24100   319.62508     -218734.7       0             -218265.91      742.4372     
     24200   317.77921     -218734.95      0             -218268.86     -402.81571    
     24300   320.16753     -218731.98      0             -218262.38      29.942599    
     24400   322.27774     -218727.68      0             -218254.99      525.42773    
     24500   323.12515     -218730.29      0             -218256.36      233.71548    
     24600   322.28846     -218735.06      0             -218262.35      412.49903    
     24700   319.42866     -218733.49      0             -218264.98     -96.210104    
     24800   319.82239     -218731.74      0             -218262.65     -235.17335    
     24900   320.90662     -218725.57      0             -218254.9      -704.05211    
     25000   324.49334     -218721.8       0             -218245.86     -339.37645    
     25100   320.90838     -218721.45      0             -218250.77      180.55394    
     25200   317.10008     -218722.16      0             -218257.06      1095.8084    
     25300   317.47066     -218727.88      0             -218262.24      717.89613    
     25400   318.22425     -218730.77      0             -218264.02      499.01897    
     25500   316.52047     -218727.88      0             -218263.64      297.15025    
     25600   321.28091     -218727.46      0             -218256.23      1222.2751    
     25700   323.52738     -218726.77      0             -218252.25      1053.7561    
     25800   318.15159     -218723.02      0             -218256.38     -250.27366    
     25900   315.45471     -218727.22      0             -218264.53      246.64524    
     26000   320.58158     -218735.63      0             -218265.43      1267.6563    
     26100   317.33573     -218728.57      0             -218263.13      171.74551    
     26200   321.08378     -218729.39      0             -218258.45      227.32939    
     26300   322.24985     -218727.43      0             -218254.78      875.24221    
     26400   322.63124     -218728.6       0             -218255.39     -205.18003    
     26500   319.68377     -218731.66      0             -218262.78     -651.14967    
     26600   318.58773     -218733.4       0             -218266.12     -275.00522    
     26700   320.08717     -218734.06      0             -218264.58     -779.9782     
     26800   320.65654     -218727.2       0             -218256.89     -1.968165     
     26900   320.27233     -218722.98      0             -218253.23      276.65392    
     27000   321.83874     -218727.89      0             -218255.85      1024.5569    
     27100   320.12638     -218729.16      0             -218259.63      1622.3497    
     27200   318.67197     -218729.15      0             -218261.75     -30.522708    
     27300   317.05149     -218726.43      0             -218261.41      1013.0932    
     27400   318.07135     -218727.31      0             -218260.79      888.24793    
     27500   320.52655     -218729.39      0             -218259.27     -680.03971    
     27600   319.83875     -218727.03      0             -218257.92      742.75132    
     27700   325.87645     -218734.52      0             -218256.56      656.50794    
     27800   321.4185      -218731.94      0             -218260.51     -19.654416    
     27900   315.47167     -218729.55      0             -218266.84     -545.25137    
     28000   318.27813     -218732.38      0             -218265.55     -356.53397    
     28100   317.36573     -218724.25      0             -218258.76      505.65196    
     28200   321.82618     -218728.95      0             -218256.92      984.49604    
     28300   319.47872     -218727.57      0             -218258.98      1431.3256    
     28400   323.10693     -218736.08      0             -218262.17      1487.7813    
     28500   318.4824      -218734.18      0             -218267.06      554.87009    
     28600   317.36377     -218737.35      0             -218271.87      792.93324    
     28700   315.39265     -218732.58      0             -218269.99      956.29673    
     28800   318.04531     -218727.11      0             -218260.63     -567.00836    
     28900   323.07829     -218730.18      0             -218256.32      138.63102    
     29000   318.09445     -218724.47      0             -218257.91      251.68991    
     29100   317.12265     -218729.55      0             -218264.42      1060.2292    
     29200   317.1089      -218733.96      0             -218268.85      364.76613    
     29300   317.89564     -218731.73      0             -218265.47     -98.252129    
     29400   317.52166     -218728.54      0             -218262.83      106.98785    
     29500   315.72878     -218724.74      0             -218261.66     -1476.6423    
     29600   318.15239     -218726.31      0             -218259.67      681.85792    
     29700   321.77827     -218730.82      0             -218258.87      195.32495    
     29800   320.57546     -218730.7       0             -218260.51      394.22799    
     29900   319.11098     -218731.94      0             -218263.9       731.89422    
     30000   319.73651     -218735.68      0             -218266.72      378.44605    
     30100   317.55982     -218730.18      0             -218264.41     -434.85285    
     30200   319.8445      -218725.8       0             -218256.68     -399.92347    
     30300   321.0498      -218726.56      0             -218255.67      976.64308    
     30400   319.21029     -218729.53      0             -218261.33      292.94354    
     30500   319.20498     -218736.65      0             -218268.47      1301.361     
     30600   317.51376     -218734.65      0             -218268.95      1380.6858    
     30700   317.6586      -218731.68      0             -218265.76      731.00233    
     30800   324.39527     -218735.53      0             -218259.73      424.83157    
     30900   320.40625     -218727.41      0             -218257.47      549.89735    
     31000   322.94684     -218733.22      0             -218259.55      154.85129    
     31100   318.91691     -218734.84      0             -218267.08      348.48483    
     31200   315.97709     -218731.32      0             -218267.87     -433.62818    
     31300   320.26833     -218730.6       0             -218260.86      221.97682    
     31400   320.11512     -218727.95      0             -218258.44     -141.6711     
     31500   321.80821     -218730.82      0             -218258.82      688.28983    
     31600   320.79902     -218732.12      0             -218261.6       540.72969    
     31700   316.21121     -218730.08      0             -218266.29      112.00383    
     31800   318.42569     -218735.85      0             -218268.81     -147.21892    
     31900   314.83189     -218728.28      0             -218266.51      1664.2551    
     32000   319.36831     -218726.32      0             -218257.9       806.84498    
     32100   323.737       -218728.77      0             -218253.94      1200.3099    
     32200   322.1735      -218729.23      0             -218256.69      260.88307    
     32300   319.15765     -218732.36      0             -218264.25     -1121.975     
     32400   319.96233     -218734.64      0             -218265.35      515.91816    
     32500   322.00294     -218734.81      0             -218262.53      532.16136    
     32600   320.24884     -218729.27      0             -218259.55     -23.047088    
     32700   321.75824     -218728.35      0             -218256.43     -537.69443    
     32800   323.35807     -218726.26      0             -218251.99      419.13486    
     32900   321.83012     -218723.9       0             -218251.86      471.26549    
     33000   321.17835     -218730.35      0             -218259.27     -533.99863    
     33100   321.82504     -218736.96      0             -218264.94     -79.78147     
     33200   317.7892      -218731         0             -218264.89      793.92615    
     33300   320.0524      -218729.11      0             -218259.68     -241.14403    
     33400   324.14542     -218729.02      0             -218253.59     -74.422367    
     33500   320.41857     -218723.55      0             -218253.59      258.87445    
     33600   318.25354     -218730.13      0             -218263.34      754.72085    
     33700   316.0961      -218730.86      0             -218267.23      144.5182     
     33800   320.01302     -218733.32      0             -218263.96     -638.20967    
     33900   318.9204      -218725.45      0             -218257.69      45.454368    
     34000   322.88121     -218728.92      0             -218255.35     -743.51146    
     34100   319.56088     -218727.29      0             -218258.59      379.59735    
     34200   317.02754     -218734.54      0             -218269.55      1464.5317    
     34300   316.34094     -218736.74      0             -218272.76      407.8221     
     34400   318.10187     -218732         0             -218265.43      775.93623    
     34500   320.01146     -218728.67      0             -218259.31      1178.0407    
     34600   320.06864     -218727.24      0             -218257.79      594.6906     
     34700   319.94221     -218730.96      0             -218261.7       547.23597    
     34800   318.06748     -218733.93      0             -218267.42      48.171793    
     34900   313.03637     -218732.84      0             -218273.71     -490.46312    
     35000   315.03518     -218733.5       0             -218271.43     -69.770507    
     35100   316.94147     -218725.57      0             -218260.71      350.96698    
     35200   322.84904     -218730.74      0             -218257.21     -180.66523    
     35300   322.26454     -218729.25      0             -218256.58      219.11276    
     35400   319.28301     -218727.61      0             -218259.32     -111.48879    
     35500   316.63628     -218730.69      0             -218266.27     -239.47094    
     35600   316.20494     -218733.45      0             -218269.66     -458.03703    
     35700   318.75333     -218729.85      0             -218262.33     -359.32081    
     35800   327.1179      -218735.64      0             -218255.85      214.9812     
     35900   319.47651     -218725.92      0             -218257.34     -921.59662    
     36000   317.40089     -218726.98      0             -218261.44     -256.11971    
     36100   316.43314     -218731.96      0             -218267.85      252.10013    
     36200   319.3761      -218736.53      0             -218268.09      502.5201     
     36300   325.15096     -218735.49      0             -218258.59      341.94429    
     36400   322.61711     -218728.56      0             -218255.38      68.120423    
     36500   318.50932     -218725.73      0             -218258.56     -622.49911    
     36600   317.78252     -218730.08      0             -218263.98      1463.1122    
     36700   319.70406     -218734.7       0             -218265.78      237.09422    
     36800   317.81785     -218729.85      0             -218263.7      -1263.6789    
     36900   320.50791     -218724.78      0             -218254.69     -163.70209    
     37000   323.20031     -218727.81      0             -218253.76     -19.108584    
     37100   321.94296     -218731.94      0             -218259.74      54.784121    
     37200   320.24995     -218733.78      0             -218264.07      353.92516    
     37300   319.82991     -218732.85      0             -218263.75     -257.55088    
     37400   318.145       -218728.96      0             -218262.34     -390.60776    
     37500   319.9926      -218727.77      0             -218258.43     -202.72625    
     37600   321.62596     -218722.4       0             -218250.67     -429.15545    
     37700   323.8675      -218721.74      0             -218246.72     -986.25202    
     37800   320.81568     -218728.54      0             -218257.99     -159.26879    
     37900   323.15141     -218736.24      0             -218262.26      357.56302    
     38000   318.0251      -218729.63      0             -218263.18      605.44812    
     38100   319.26538     -218728.56      0             -218260.29      596.57759    
     38200   320.36467     -218725.07      0             -218255.18     -615.89304    
     38300   325.22494     -218728.01      0             -218251         626.99231    
     38400   320.98658     -218726.86      0             -218256.06      1200.9995    
     38500   320.46299     -218734.04      0             -218264.01      16.037089    
     38600   317.22411     -218730.32      0             -218265.05     -258.44134    
     38700   321.79927     -218735.07      0             -218263.08      1473.6141    
     38800   321.7148      -218727.91      0             -218256.04      667.33524    
     38900   323.23376     -218726.19      0             -218252.1      -797.08418    
     39000   322.62006     -218728.88      0             -218255.69     -290.23912    
     39100   316.52784     -218728.76      0             -218264.51     -129.14824    
     39200   320.13044     -218734.5       0             -218264.96     -332.27234    
     39300   319.61072     -218730.16      0             -218261.39      666.06311    
     39400   319.71675     -218725.82      0             -218256.88     -707.58059    
     39500   322.21643     -218726.35      0             -218253.75     -242.13044    
     39600   321.91993     -218727.61      0             -218255.45     -1077.0794    
     39700   320.02272     -218734.14      0             -218264.76      64.890626    
     39800   317.6639      -218733.71      0             -218267.79      36.345375    
     39900   318.72599     -218730.84      0             -218263.36      41.063659    
     40000   320.11807     -218726.16      0             -218256.64      371.14002    
     40100   319.16105     -218725.83      0             -218257.72     -95.66487     
     40200   319.73413     -218729.28      0             -218260.32     -549.77575    
     40300   321.3777      -218734.74      0             -218263.37      975.38417    
     40400   315.91631     -218732.39      0             -218269.03     -213.34759    
     40500   316.49993     -218738.15      0             -218273.93      253.73841    
     40600   315.89903     -218729.88      0             -218266.54      130.09627    
     40700   321.90386     -218732.48      0             -218260.34      112.49323    
     40800   322.97408     -218731.62      0             -218257.91      560.95176    
     40900   322.75129     -218731.39      0             -218258.01     -52.254688    
     41000   320.58127     -218733.32      0             -218263.12     -424.72972    
     41100   319.33588     -218737.36      0             -218268.99      188.38138    
     41200   319.41304     -218737.28      0             -218268.79     -718.18426    
     41300   320.88901     -218728.52      0             -218257.87     -536.09888    
     41400   318.13798     -218722.72      0             -218256.1       30.682204    
     41500   323.73986     -218734.72      0             -218259.89      252.3757     
     41600   317.07729     -218730.07      0             -218265.01      1272.4108    
     41700   321.48176     -218736.45      0             -218264.92      337.16533    
     41800   320.80025     -218725.55      0             -218255.02     -329.58428    
     41900   320.90545     -218722.43      0             -218251.75     -887.8033     
     42000   321.14512     -218727.84      0             -218256.81     -242.03204    
     42100   318.22579     -218728.78      0             -218262.03     -119.87677    
     42200   318.86036     -218730.69      0             -218263.02     -13.731415    
     42300   321.43385     -218732.56      0             -218261.11     -362.18546    
     42400   322.30144     -218726.33      0             -218253.61     -196.92886    
     42500   329.82284     -218729.65      0             -218245.89      1274.4419    
     42600   322.72007     -218724.09      0             -218250.75      890.51113    
     42700   322.92002     -218730.58      0             -218256.95      90.643206    
     42800   319.06749     -218729.89      0             -218261.91      336.612      
     42900   318.28316     -218730.2       0             -218263.37      323.97595    
     43000   319.0555      -218728.84      0             -218260.87     -276.02213    
     43100   323.6889      -218726.78      0             -218252.02      565.53836    
     43200   321.66245     -218725.01      0             -218253.22      985.04653    
     43300   319.68863     -218727.6       0             -218258.71      260.18967    
     43400   319.20629     -218729.46      0             -218261.27     -420.41928    
     43500   319.16506     -218730.93      0             -218262.81     -1029.5544    
     43600   323.33575     -218735.2       0             -218260.96     -3.1305883    
     43700   321.33009     -218727.66      0             -218256.36     -54.101983    
     43800   323.61886     -218724.71      0             -218250.05     -720.39783    
     43900   324.5405      -218730.17      0             -218254.16     -285.64752    
     44000   321.24111     -218732.42      0             -218261.25     -559.90075    
     44100   323.38985     -218737.25      0             -218262.93      454.60871    
     44200   319.31405     -218730.9       0             -218262.56     -346.80085    
     44300   321.35415     -218729.23      0             -218257.89      1298.9438    
     44400   326.41616     -218728.1       0             -218249.34      509.30151    
     44500   323.02379     -218725.7       0             -218251.92     -46.177565    
     44600   321.33458     -218728.9       0             -218257.59     -58.438272    
     44700   319.718       -218729.18      0             -218260.25      559.19485    
     44800   320.66384     -218734.15      0             -218263.83      122.18407    
     44900   316.76635     -218730.66      0             -218266.05      1482.4525    
     45000   318.63754     -218727.08      0             -218259.73     -988.76136    
     45100   325.67222     -218730.64      0             -218252.97     -345.313      
     45200   321.80172     -218728.52      0             -218256.53     -358.29749    
     45300   322.96005     -218734.97      0             -218261.28      399.34257    
     45400   320.5574      -218734.18      0             -218264.01      316.33594    
     45500   316.26145     -218726.58      0             -218262.72      546.66308    
     45600   320.48469     -218730.95      0             -218260.89      724.95183    
     45700   321.53538     -218731.27      0             -218259.67      565.39506    
     45800   319.77711     -218727.54      0             -218258.52      214.51476    
     45900   319.64206     -218727.78      0             -218258.96      294.4279     
     46000   315.72126     -218727.07      0             -218264        -100.99419    
     46100   317.07161     -218730.98      0             -218265.92     -891.2989     
     46200   321.26832     -218733.51      0             -218262.3      -732.5438     
     46300   321.8858      -218727.64      0             -218255.52      385.90635    
     46400   322.29066     -218726.56      0             -218253.85     -46.896205    
     46500   318.87541     -218730.42      0             -218262.72     -173.13983    
     46600   319.77089     -218737.08      0             -218268.06      341.14436    
     46700   321.10922     -218735.14      0             -218264.17      178.8876     
     46800   320.21156     -218728.4       0             -218258.74     -196.48146    
     46900   323.15645     -218729.42      0             -218255.44      120.22416    
     47000   323.24157     -218732.76      0             -218258.66      746.93512    
     47100   317.30909     -218734.75      0             -218269.35      671.77953    
     47200   318.04658     -218734.82      0             -218268.33      367.12383    
     47300   319.79469     -218731.55      0             -218262.5       713.43285    
     47400   319.2383      -218725.99      0             -218257.76     -302.34853    
     47500   321.85492     -218728.2       0             -218256.13      231.92459    
     47600   319.761       -218728.5       0             -218259.51      386.71392    
     47700   319.92873     -218731.66      0             -218262.41     -188.52394    
     47800   319.28595     -218730.9       0             -218262.6       1186.4055    
     47900   320.39883     -218732.3       0             -218262.36      401.46061    
     48000   317.48346     -218727.02      0             -218261.36      726.10883    
     48100   321.50636     -218728.71      0             -218257.15     -132.68205    
     48200   322.16418     -218725.25      0             -218252.73      98.711928    
     48300   321.28623     -218726.3       0             -218255.06      836.52274    
     48400   317.19996     -218729.1       0             -218263.86     -132.51801    
     48500   319.88703     -218734.15      0             -218264.97     -36.265304    
     48600   322.09279     -218733.5       0             -218261.08      459.892      
     48700   320.6154      -218727.59      0             -218257.33      1073.9893    
     48800   322.3035      -218724.65      0             -218251.92     -1226.728     
     48900   326.28083     -218726.93      0             -218248.36     -15.05971     
     49000   318.94097     -218724.51      0             -218256.71      555.43252    
     49100   323.35824     -218736.72      0             -218262.44      434.27871    
     49200   316.98353     -218729.77      0             -218264.84      739.72003    
     49300   320.46628     -218731.26      0             -218261.23      1105.6242    
     49400   320.38265     -218725.78      0             -218255.87      598.99318    
     49500   324.44489     -218724.87      0             -218249        -247.92239    
     49600   325.46376     -218729.02      0             -218251.66     -1404.6929    
     49700   318.94957     -218730.01      0             -218262.21     -1241.4418    
     49800   319.83852     -218732.15      0             -218263.04     -237.35392    
     49900   321.00089     -218732.37      0             -218261.55     -1067.5931    
     50000   319.69193     -218725.6       0             -218256.7      -415.21737    
     50100   320.44346     -218723.86      0             -218253.86     -243.92353    
     50200   317.87809     -218725.33      0             -218259.09     -798.37079    
     50300   318.41795     -218733.54      0             -218266.51      806.29745    
     50400   319.21632     -218735.26      0             -218267.06      719.27501    
     50500   318.10657     -218729.23      0             -218262.66      834.45082    
     50600   323.09818     -218727.6       0             -218253.7       2231.2132    
     50700   328.29043     -218734.99      0             -218253.48     -484.10082    
     50800   320.93437     -218728.81      0             -218258.09      752.78916    
     50900   318.13275     -218729.38      0             -218262.76      909.88418    
     51000   321.32866     -218735.48      0             -218264.18      609.87316    
     51100   317.47415     -218728.62      0             -218262.98      100.39952    
     51200   321.09634     -218725.35      0             -218254.39     -419.75472    
     51300   323.68157     -218725.95      0             -218251.2       443.10332    
     51400   319.98373     -218726.05      0             -218256.73      290.71381    
     51500   319.29028     -218731.2       0             -218262.89     -379.69532    
     51600   320.15783     -218732.66      0             -218263.08      861.96568    
     51700   322.27058     -218734.75      0             -218262.07      1074.6214    
     51800   321.09159     -218730.74      0             -218259.79      1800.6934    
     51900   320.25763     -218720.06      0             -218250.34      519.27161    
     52000   322.3867      -218723.71      0             -218250.86      39.96577     
     52100   318.99897     -218726.21      0             -218258.33      609.41793    
     52200   318.76921     -218728.66      0             -218261.12     -44.706439    
     52300   321.5198      -218734.58      0             -218263        -81.800554    
     52400   319.79101     -218731.4       0             -218262.36     -465.18876    
     52500   319.29547     -218724.18      0             -218255.86     -886.21857    
     52600   321.39024     -218722.31      0             -218250.92     -1081.7203    
     52700   323.19137     -218729.08      0             -218255.05      289.25366    
     52800   321.02036     -218735.65      0             -218264.8       632.49219    
     52900   320.69333     -218735.73      0             -218265.36      461.68993    
     53000   319.38203     -218730.94      0             -218262.5       921.13797    
     53100   323.59858     -218731.86      0             -218257.23     -59.469214    
     53200   322.7055      -218725.58      0             -218252.26     -871.85354    
     53300   323.98668     -218725.29      0             -218250.09      521.53366    
     53400   322.61965     -218732.1       0             -218258.91     -927.78592    
     53500   314.52381     -218727.35      0             -218266.03     -480.23963    
     53600   320.44849     -218735.85      0             -218265.84     -481.50307    
     53700   316.42519     -218725         0             -218260.89     -368.26733    
     53800   321.94864     -218726.56      0             -218254.35     -2051.6705    
     53900   321.54312     -218725.95      0             -218254.34      1584.099     
     54000   319.94991     -218728.03      0             -218258.75      788.03852    
     54100   323.33159     -218734.16      0             -218259.92     -13.310923    
     54200   319.55202     -218731.13      0             -218262.44      605.19945    
     54300   320.46486     -218735.63      0             -218265.6       209.44365    
     54400   317.16084     -218734.13      0             -218268.94      541.69956    
     54500   318.849       -218736.87      0             -218269.2       1417.7204    
     54600   319.25256     -218729.4       0             -218261.15     -107.38181    
     54700   322.30919     -218729.33      0             -218256.59     -759.89686    
     54800   322.07684     -218730.13      0             -218257.73      950.44524    
     54900   319.26708     -218731.18      0             -218262.9       730.04012    
     55000   314.78599     -218733.18      0             -218271.48      418.43939    
     55100   318.50758     -218738.12      0             -218270.96      443.41167    
     55200   317.31039     -218730.74      0             -218265.33     -242.36012    
     55300   317.04096     -218728.23      0             -218263.22     -566.7014     
     55400   317.53452     -218724.79      0             -218259.06      508.88055    
     55500   322.41641     -218728.24      0             -218255.35      809.45605    
     55600   321.00295     -218729.03      0             -218258.21      1192.2798    
     55700   319.91206     -218735.92      0             -218266.7       736.86427    
     55800   319.15516     -218736.86      0             -218268.75      801.50824    
     55900   318.12222     -218732.25      0             -218265.65      784.61284    
     56000   316.92901     -218726.32      0             -218261.47      279.49506    
     56100   322.19009     -218732.43      0             -218259.87     -185.16843    
     56200   318.87379     -218728.9       0             -218261.2      -1134.7195    
     56300   319.90325     -218730.92      0             -218261.72     -574.94459    
     56400   321.38424     -218729.71      0             -218258.33      647.44951    
     56500   323.03234     -218730.01      0             -218256.21     -492.77125    
     56600   320.5887      -218728.65      0             -218258.44      1076.2829    
     56700   318.19005     -218731.85      0             -218265.16     -120.09874    
     56800   314.65718     -218729.49      0             -218267.98      34.427673    
     56900   320.89913     -218733.49      0             -218262.83     -419.21543    
     57000   320.60043     -218725.43      0             -218255.2       117.57547    
     57100   323.90967     -218730.61      0             -218255.53      31.059662    
     57200   320.00105     -218728.78      0             -218259.43      178.99265    
     57300   318.48449     -218732.36      0             -218265.23     -262.71707    
     57400   314.72725     -218729.07      0             -218267.46     -311.94377    
     57500   319.13192     -218729.97      0             -218261.89      615.85522    
     57600   320.77096     -218723.82      0             -218253.34      1151.5958    
     57700   322.76973     -218727.8       0             -218254.39      134.81128    
     57800   321.39182     -218731.54      0             -218260.15     -211.31638    
     57900   321.15075     -218733.37      0             -218262.33      15.468926    
     58000   318.63351     -218730.31      0             -218262.96      385.79519    
     58100   318.87409     -218728.18      0             -218260.48     -324.37824    
     58200   323.32361     -218726.19      0             -218251.96     -451.97928    
     58300   323.28222     -218721.77      0             -218247.61     -249.08159    
     58400   320.89134     -218725.11      0             -218254.46      708.2641     
     58500   322.12868     -218733.25      0             -218260.78      191.59353    
     58600   320.05496     -218732.5       0             -218263.07      544.43809    
     58700   318.69099     -218731.14      0             -218263.72      1326.1906    
     58800   318.59583     -218728.64      0             -218261.36      645.49815    
     58900   322.36694     -218727.25      0             -218254.43      895.64439    
     59000   322.69552     -218725.38      0             -218252.08      223.16561    
     59100   320.27761     -218730.17      0             -218260.42      267.18981    
     59200   317.63103     -218729.97      0             -218264.1       751.374      
     59300   317.40789     -218729.13      0             -218263.58     -275.82318    
     59400   320.92094     -218729.23      0             -218258.53     -701.9151     
     59500   323.10356     -218727.56      0             -218253.66     -315.61565    
     59600   319.43925     -218724.61      0             -218256.08     -1096.3621    
     59700   314.88334     -218728.04      0             -218266.19      431.12378    
     59800   321.27645     -218737.48      0             -218266.26      1326.3463    
     59900   318.59667     -218730.4       0             -218263.11      474.4905     
     60000   319.40996     -218724.57      0             -218256.09      209.24293    
     60100   324.1502      -218728.91      0             -218253.48      961.90293    
     60200   321.84453     -218728.74      0             -218256.68      1733.2824    
     60300   319.62535     -218727.94      0             -218259.14      0.44352652   
     60400   321.02921     -218731.53      0             -218260.67      629.56546    
     60500   317.49366     -218728.32      0             -218262.65      339.41432    
     60600   319.95589     -218733.17      0             -218263.88      136.23139    
     60700   315.8675      -218730.01      0             -218266.72      32.340723    
     60800   320.41379     -218732.8       0             -218262.85     -9.8846803    
     60900   321.88478     -218728.83      0             -218256.72      195.62007    
     61000   323.28966     -218730.29      0             -218256.11     -107.13063    
     61100   319.21016     -218731.38      0             -218263.19     -806.26275    
     61200   317.73376     -218736.63      0             -218270.6      -142.48236    
     61300   318.32411     -218734.84      0             -218267.95      635.40772    
     61400   319.43709     -218730.41      0             -218261.88      1870.9421    
     61500   321.76788     -218731.06      0             -218259.12      350.9566     
     61600   319.57014     -218728.91      0             -218260.19     -120.99346    
     61700   320.49262     -218732.41      0             -218262.34      367.67235    
     61800   319.75785     -218737.76      0             -218268.77     -24.960222    
     61900   316.36256     -218736.57      0             -218272.56     -366.45635    
     62000   317.12253     -218730.38      0             -218265.25      558.51011    
     62100   322.62863     -218733.09      0             -218259.88      476.07479    
     62200   318.63745     -218725.53      0             -218258.18      617.81588    
     62300   318.02677     -218725.73      0             -218259.28     -102.96097    
     62400   318.16066     -218732.8       0             -218266.15      212.76031    
     62500   316.31978     -218736.12      0             -218272.17     -18.651607    
     62600   319.36831     -218737.35      0             -218268.93      1477.5245    
     62700   322.16289     -218734.92      0             -218262.4      -368.97147    
     62800   319.16946     -218728.89      0             -218260.76     -435.9277     
     62900   318.46864     -218725.41      0             -218258.31     -315.98513    
     63000   323.62884     -218732.01      0             -218257.34      303.67536    
     63100   321.89416     -218732.82      0             -218260.69      811.67102    
     63200   319.76387     -218736.92      0             -218267.92     -21.403552    
     63300   315.24276     -218729.93      0             -218267.56     -123.29952    
     63400   316.1559      -218724         0             -218260.29     -150.88726    
     63500   321.397       -218726.97      0             -218255.57     -95.163072    
     63600   320.65685     -218728.12      0             -218257.81      797.09135    
     63700   320.67217     -218732.79      0             -218262.46      279.86912    
     63800   317.56735     -218731.13      0             -218265.35      705.94276    
     63900   318.22768     -218729.24      0             -218262.49      903.35392    
     64000   321.08598     -218724.24      0             -218253.3       400.40473    
     64100   322.32376     -218726.1       0             -218253.34      147.2579     
     64200   319.9938      -218729.69      0             -218260.35      257.56475    
     64300   322.212       -218734.89      0             -218262.3       1051.504     
     64400   322.32786     -218736.01      0             -218263.25      324.75532    
     64500   320.67167     -218732.73      0             -218262.39     -235.8781     
     64600   322.24955     -218730.32      0             -218257.67      159.06187    
     64700   323.02053     -218726.23      0             -218252.45     -77.056765    
     64800   320.23798     -218725.19      0             -218255.49     -1027.9603    
     64900   317.72006     -218729.75      0             -218263.74     -859.44712    
     65000   317.67703     -218731.04      0             -218265.1      -79.470165    
     65100   319.02895     -218730.66      0             -218262.73      117.819      
     65200   316.63577     -218724.64      0             -218260.23     -168.02432    
     65300   323.82262     -218730.33      0             -218255.37      580.79872    
     65400   323.62214     -218721.1       0             -218246.44      765.42549    
     65500   325.28662     -218723.05      0             -218245.95      1201.4632    
     65600   319.36932     -218724.19      0             -218255.76     -288.47925    
     65700   316.75139     -218724.93      0             -218260.34      529.83722    
     65800   318.43569     -218731.29      0             -218264.24      865.71326    
     65900   315.98707     -218729.94      0             -218266.47     -36.073542    
     66000   317.64057     -218728.4       0             -218262.52      685.64679    
     66100   325.46513     -218731.36      0             -218254         675.52913    
     66200   321.26121     -218726.84      0             -218255.64     -316.11523    
     66300   318.79705     -218728.37      0             -218260.79     -8.7734954    
     66400   319.46901     -218732.02      0             -218263.45      1746.3235    
     66500   317.70689     -218729.5       0             -218263.51      1380.7752    
     66600   320.48775     -218732.34      0             -218262.28      606.31149    
     66700   319.30507     -218729.83      0             -218261.5      -4.1788153    
     66800   320.58555     -218730.21      0             -218260         378.69205    
     66900   323.45776     -218728.34      0             -218253.92      1534.6402    
     67000   322.75817     -218724.28      0             -218250.89      200.06038    
     67100   320.94424     -218728.19      0             -218257.45     -314.39876    
     67200   319.83727     -218733.15      0             -218264.04      309.07992    
     67300   322.47552     -218737.49      0             -218264.51      673.63281    
     67400   321.00913     -218731.97      0             -218261.14      780.96922    
     67500   323.1111      -218728.3       0             -218254.39      374.13306    
     67600   318.20394     -218719.07      0             -218252.35     -595.24361    
     67700   319.97892     -218731.43      0             -218262.12      260.41327    
     67800   318.60789     -218734.41      0             -218267.1       249.17453    
     67900   319.61225     -218733.25      0             -218264.47     -1153.3639    
     68000   322.86189     -218731.41      0             -218257.86      152.71389    
     68100   322.51126     -218728.17      0             -218255.14     -257.93657    
     68200   317.90432     -218724.61      0             -218258.33     -532.68858    
     68300   315.95722     -218724.42      0             -218261        -387.34728    
     68400   320.16493     -218731.29      0             -218261.7      -26.997265    
     68500   323.19001     -218735.56      0             -218261.54      415.80381    
     68600   321.41267     -218731.06      0             -218259.64     -422.48108    
     68700   318.1484      -218722.69      0             -218256.05      640.27126    
     68800   320.81998     -218725.48      0             -218254.93      752.70035    
     68900   322.49102     -218735.55      0             -218262.54      1215.082     
     69000   315.41191     -218728.95      0             -218266.33      1014.1937    
     69100   318.49251     -218731.5       0             -218264.37      222.87807    
     69200   320.63153     -218729.57      0             -218259.3      -207.42137    
     69300   320.75766     -218720.86      0             -218250.4      -798.99209    
     69400   324.80365     -218725.35      0             -218248.96     -768.77739    
     69500   325.3167      -218730.35      0             -218253.2      -1056.6575    
     69600   319.80521     -218728.7       0             -218259.63      68.913749    
     69700   321.58892     -218735.67      0             -218263.99     -667.41999    
     69800   321.05893     -218736.81      0             -218265.91      275.20984    
     69900   319.08725     -218731.51      0             -218263.5       269.22081    
     70000   321.71249     -218726.42      0             -218254.56      679.15962    
     70100   325.37291     -218730.7       0             -218253.48      338.11236    
     70200   318.1894      -218727         0             -218260.31     -106.67509    
     70300   320.19918     -218732.98      0             -218263.34      517.55455    
     70400   321.51615     -218734.26      0             -218262.69      235.65789    
     70500   323.07168     -218734.58      0             -218260.73      761.78385    
     70600   320.24098     -218727.6       0             -218257.89      949.69298    
     70700   320.71955     -218722.98      0             -218252.57      389.1435     
     70800   323.94456     -218728.22      0             -218253.08      2.8056481    
     70900   320.77919     -218732.32      0             -218261.83     -427.22416    
     71000   317.24102     -218730.01      0             -218264.71     -909.14956    
     71100   322.25675     -218734.24      0             -218261.58      194.70811    
     71200   321.06437     -218728.95      0             -218258.04     -370.54922    
     71300   320.7095      -218723.69      0             -218253.3      -1347.9627    
     71400   325.57315     -218724.95      0             -218247.43      23.905255    
     71500   321.4536      -218726.76      0             -218255.28      852.18326    
     71600   317.93808     -218726.81      0             -218260.49      281.2033     
     71700   318.31029     -218730.19      0             -218263.32      749.81771    
     71800   319.77914     -218732.1       0             -218263.07      644.5231     
     71900   323.9339      -218733.03      0             -218257.91      516.0644     
     72000   325.93198     -218729.32      0             -218251.27      1213.0491    
     72100   324.10383     -218727.78      0             -218252.41     -41.652509    
     72200   317.18681     -218727.74      0             -218262.51     -522.6441     
     72300   319.36008     -218731.71      0             -218263.3      -174.25921    
     72400   317.97657     -218729.31      0             -218262.93      476.1736     
     72500   320.37426     -218729.28      0             -218259.38      1111.7707    
     72600   325.93493     -218731.43      0             -218253.37      610.90423    
     72700   322.02816     -218723.18      0             -218250.86      473.45164    
     72800   322.17098     -218731.99      0             -218259.46     -189.27181    
     72900   321.68903     -218736.97      0             -218265.14     -403.01323    
     73000   319.36804     -218732.95      0             -218264.53      229.51992    
     73100   318.93782     -218728         0             -218260.21      815.22548    
     73200   324.04856     -218728.7       0             -218253.41      629.61832    
     73300   319.66901     -218723.15      0             -218254.28      1260.4136    
     73400   315.48214     -218728.47      0             -218265.75      698.14341    
     73500   318.74905     -218734.43      0             -218266.92      686.74632    
     73600   318.30544     -218729.7       0             -218262.84      1019.5215    
     73700   321.19436     -218728.45      0             -218257.34      903.09206    
     73800   319.08403     -218724.49      0             -218256.49     -1122.4891    
     73900   319.5403      -218733.04      0             -218264.36     -1267.8602    
     74000   315.51358     -218732.84      0             -218270.07     -311.37514    
     74100   317.74572     -218732.41      0             -218266.36      363.67056    
     74200   319.11196     -218729.39      0             -218261.34      941.78648    
     74300   320.95641     -218730.17      0             -218259.42      451.22392    
     74400   319.26519     -218728.17      0             -218259.9      -754.84174    
     74500   313.14351     -218724.79      0             -218265.5       217.45383    
     74600   315.61224     -218733.89      0             -218270.98      144.10744    
     74700   315.65425     -218732.11      0             -218269.14      1681.2547    
     74800   323.76504     -218735.01      0             -218260.14      582.58398    
     74900   319.52997     -218726.97      0             -218258.31      673.22691    
     75000   323.52393     -218733.84      0             -218259.32      64.550988    
     75100   317.63012     -218730.42      0             -218264.55     -1052.6329    
     75200   315.47281     -218732.57      0             -218269.86      1766.7929    
     75300   319.98215     -218739.05      0             -218269.73      220.32157    
     75400   319.63462     -218729.3       0             -218260.49      138.04012    
     75500   322.70077     -218728.95      0             -218255.64     -173.08963    
     75600   318.59664     -218724.08      0             -218256.79     -580.03775    
     75700   319.17747     -218731.8       0             -218263.65      997.92856    
     75800   316.62295     -218732.21      0             -218267.81      456.6769     
     75900   318.79057     -218733.06      0             -218265.48     -205.07606    
     76000   319.64699     -218731.19      0             -218262.36      109.87303    
     76100   315.91319     -218724.74      0             -218261.39      1067.0881    
     76200   319.49164     -218728.58      0             -218259.98      1819.2592    
     76300   321.46598     -218731.39      0             -218259.89      899.14765    
     76400   319.8753      -218733.04      0             -218263.87      13.457387    
     76500   316.97278     -218733.33      0             -218268.42     -191.92154    
     76600   315.64766     -218728.94      0             -218265.98      344.68764    
     76700   320.89818     -218729         0             -218258.33     -21.11492     
     76800   321.67123     -218727.97      0             -218256.17     -464.24852    
     76900   318.97977     -218726.98      0             -218259.13     -685.40207    
     77000   316.26514     -218726.7       0             -218262.83     -477.47797    
     77100   316.58145     -218731.73      0             -218267.4       422.71205    
     77200   314.99769     -218739.01      0             -218277         89.607775    
     77300   316.83291     -218740.41      0             -218275.71     -45.654368    
     77400   314.8944      -218728.47      0             -218266.61      50.371116    
     77500   319.35667     -218730.16      0             -218261.75      108.65372    
     77600   319.54296     -218726.49      0             -218257.81      43.809418    
     77700   323.15672     -218729.99      0             -218256.01     -316.0478     
     77800   320.15899     -218728.9       0             -218259.32      689.30671    
     77900   317.36054     -218732.85      0             -218267.37      827.6208     
     78000   320.54084     -218737.84      0             -218267.7       185.02912    
     78100   320.17917     -218731.64      0             -218262.03      1020.5083    
     78200   320.75243     -218729.52      0             -218259.07     -253.55792    
     78300   321.2229      -218730.22      0             -218259.07      384.3979     
     78400   319.28843     -218729.91      0             -218261.61     -531.63115    
     78500   322.29913     -218737.23      0             -218264.51     -507.73953    
     78600   315.09719     -218731.2       0             -218269.04     -171.05251    
     78700   313.7606      -218730.01      0             -218269.81      1021.8889    
     78800   320.93449     -218732.57      0             -218261.85      917.12785    
     78900   323.66526     -218732.94      0             -218258.21      605.22473    
     79000   322.42499     -218731.05      0             -218258.15      1256.453     
     79100   316.51914     -218726.49      0             -218262.24      1267.0936    
     79200   317.11471     -218735.13      0             -218270.01      1550.1145    
     79300   316.16301     -218733.5       0             -218269.78      409.6537     
     79400   316.90984     -218726.71      0             -218261.89      549.00883    
     79500   322.9138      -218731.33      0             -218257.71     -749.16325    
     79600   321.32827     -218730.29      0             -218258.99     -531.27529    
     79700   317.92503     -218728.63      0             -218262.32     -1155.892     
     79800   317.58197     -218732.32      0             -218266.52     -1101.7943    
     79900   316.98779     -218731.32      0             -218266.39     -745.56567    
     80000   322.16718     -218730.23      0             -218257.7      -162.86658    
     80100   320.14409     -218724.13      0             -218254.57      504.77954    
     80200   319.59927     -218727.1       0             -218258.34      47.373943    
     80300   321.1246      -218736.29      0             -218265.29      544.65155    
     80400   316.13614     -218732.21      0             -218268.53      426.97891    
     80500   319.41261     -218733.3       0             -218264.82      0.91073433   
     80600   322.36623     -218724.35      0             -218251.53      1246.0295    
     80700   325.43615     -218731         0             -218253.67      1033.3614    
     80800   321.76953     -218732.9       0             -218260.96      979.06728    
     80900   321.02141     -218736.19      0             -218265.34      141.09216    
     81000   315.63748     -218728.8       0             -218265.85     -415.999      
     81100   321.14356     -218731.98      0             -218260.95     -344.71564    
     81200   323.37347     -218727.55      0             -218253.25      247.56722    
     81300   322.32002     -218726.79      0             -218254.04     -69.665307    
     81400   322.38176     -218731.12      0             -218258.28     -137.637      
     81500   322.67477     -218734.2       0             -218260.93      169.76844    
     81600   316.85387     -218727.15      0             -218262.42      711.2101     
     81700   318.8191      -218730.08      0             -218262.46      184.76935    
     81800   318.48759     -218726.25      0             -218259.12      585.78758    
     81900   321.7059      -218723.4       0             -218251.55      786.79754    
     82000   321.92333     -218725.62      0             -218253.45     -8.7437759    
     82100   316.19392     -218725.45      0             -218261.68      477.27444    
     82200   318.20281     -218730.44      0             -218263.72      987.89098    
     82300   319.24859     -218732.02      0             -218263.77     -523.34246    
     82400   322.25514     -218732.66      0             -218260.01     -998.23369    
     82500   325.51317     -218728.56      0             -218251.13      317.24985    
     82600   322.51164     -218724.68      0             -218251.64      596.92536    
     82700   323.97486     -218732.55      0             -218257.37      432.6836     
     82800   322.45744     -218734.25      0             -218261.29      34.194417    
     82900   317.56696     -218727.95      0             -218262.17      630.78087    
     83000   317.92056     -218727.29      0             -218260.99     -14.55629     
     83100   318.28048     -218723.42      0             -218256.59      44.826399    
     83200   320.86206     -218722.53      0             -218251.91      356.12158    
     83300   321.16132     -218726.56      0             -218255.51      464.13142    
     83400   318.93877     -218731.76      0             -218263.97      1107.4018    
     83500   320.42452     -218734.68      0             -218264.71      699.77179    
     83600   317.311       -218727.56      0             -218262.16      794.30754    
     83700   322.52442     -218728.83      0             -218255.78     -278.33675    
     83800   323.66592     -218725.72      0             -218251        -153.66467    
     83900   321.14171     -218726.85      0             -218255.83      510.4133     
     84000   321.40153     -218736.68      0             -218265.27     -734.62586    
     84100   319.28913     -218733.93      0             -218265.62     -784.69876    
     84200   317.25999     -218725.9       0             -218260.57     -1119.4004    
     84300   321.55747     -218727.06      0             -218255.43      148.40522    
     84400   321.35819     -218727.62      0             -218256.28      872.36594    
     84500   316.88258     -218731.03      0             -218266.25      513.20738    
     84600   316.31264     -218733.55      0             -218269.61     -626.05631    
     84700   319.68639     -218733.41      0             -218264.52      850.25071    
     84800   320.44169     -218730.08      0             -218260.08      341.05974    
     84900   321.4083      -218728.7       0             -218257.28      806.33075    
     85000   318.7258      -218726.63      0             -218259.15     -457.60613    
     85100   317.37346     -218734.77      0             -218269.27     -467.75591    
     85200   316.90587     -218735.29      0             -218270.48     -389.76756    
     85300   319.83712     -218732.66      0             -218263.55      472.20126    
     85400   319.9156      -218728.18      0             -218258.95     -641.37612    
     85500   319.46044     -218727.11      0             -218258.56     -437.80359    
     85600   320.84203     -218729.46      0             -218258.88      385.44918    
     85700   318.35094     -218730.48      0             -218263.55      108.18844    
     85800   320.03481     -218739.15      0             -218269.75     -237.88499    
     85900   315.5441      -218730.86      0             -218268.05      141.96203    
     86000   322.44202     -218732.12      0             -218259.19      463.5649     
     86100   320.08132     -218727.02      0             -218257.56      429.24349    
     86200   320.67601     -218730.07      0             -218259.73     -81.736952    
     86300   321.84379     -218736.03      0             -218263.98      773.68862    
     86400   317.70838     -218735.24      0             -218269.25     -263.85168    
     86500   314.34182     -218735.54      0             -218274.49      437.53778    
     86600   317.30068     -218735.53      0             -218270.14     -663.62595    
     86700   318.92296     -218728.78      0             -218261.01     -693.18632    
     86800   322.01912     -218730.67      0             -218258.36      372.41726    
     86900   319.77651     -218727.34      0             -218258.31      615.44058    
     87000   320.92863     -218732.48      0             -218261.77      308.45294    
     87100   319.88072     -218736.93      0             -218267.76      418.12202    
     87200   316.13686     -218732.98      0             -218269.3      -177.40425    
     87300   317.80448     -218725.67      0             -218259.54      172.94829    
     87400   326.47994     -218734.15      0             -218255.29      183.22807    
     87500   319.15275     -218728.36      0             -218260.26      738.77794    
     87600   318.58452     -218732.78      0             -218265.51      9.8894013    
     87700   320.64451     -218736.18      0             -218265.89      646.14851    
     87800   320.57127     -218732.14      0             -218261.95      173.82896    
     87900   318.8739      -218728.35      0             -218260.65      323.04678    
     88000   318.82079     -218728.74      0             -218261.12     -855.21655    
     88100   316.06728     -218726.38      0             -218262.8       375.22953    
     88200   319.23294     -218732.86      0             -218264.64      395.60171    
     88300   319.93413     -218737.14      0             -218267.89      1028.4725    
     88400   315.99259     -218730.67      0             -218267.2       133.67014    
     88500   324.15453     -218734.95      0             -218259.5      -144.79704    
     88600   321.72219     -218727.23      0             -218255.36      1358.4363    
     88700   323.72921     -218732.78      0             -218257.96     -60.280021    
     88800   316.48821     -218729.63      0             -218265.44     -246.73007    
     88900   318.46043     -218735.17      0             -218268.08      149.25548    
     89000   320.28875     -218735.94      0             -218266.17     -621.34993    
     89100   320.64287     -218731.92      0             -218261.62     -180.16472    
     89200   318.68046     -218725.54      0             -218258.12     -148.15192    
     89300   321.58488     -218729.22      0             -218257.55     -210.93612    
     89400   317.98129     -218730.9       0             -218264.51      165.70773    
     89500   319.32484     -218739.15      0             -218270.79      870.48859    
     89600   317.04167     -218733.06      0             -218268.05      46.285951    
     89700   321.69963     -218732.07      0             -218260.23      202.58088    
     89800   323.16335     -218732.32      0             -218258.33      636.0952     
     89900   322.90835     -218734.44      0             -218260.82      87.293792    
     90000   316.51191     -218729.1       0             -218264.87      644.79107    
     90100   319.31959     -218740.88      0             -218272.53      670.04859    
     90200   312.99759     -218735.66      0             -218276.58     -5.9273529    
     90300   318.49856     -218733.15      0             -218266         159.44929    
     90400   320.25774     -218730.77      0             -218261.04      855.2612     
     90500   317.19569     -218724.78      0             -218259.55      487.91894    
     90600   321.53192     -218732.76      0             -218261.17      2.1859729    
     90700   318.5934      -218732.5       0             -218265.21     -131.52214    
     90800   317.1685      -218734.66      0             -218269.47      450.72719    
     90900   315.88717     -218733.8       0             -218270.49     -103.56877    
     91000   319.27135     -218730.37      0             -218262.09     -653.07713    
     91100   319.53        -218725.89      0             -218257.23      714.55971    
     91200   319.05097     -218727.34      0             -218259.38     -600.19063    
     91300   319.23393     -218731.71      0             -218263.48     -676.27902    
     91400   317.29487     -218737.13      0             -218271.75     -1036.8206    
     91500   314.29035     -218731.89      0             -218270.91      764.33381    
     91600   319.29481     -218729.5       0             -218261.18      260.97524    
     91700   318.90349     -218726.43      0             -218258.69      488.37507    
     91800   321.72972     -218732.32      0             -218260.43      625.76116    
     91900   319.69868     -218732.12      0             -218263.21      1035.0688    
     92000   320.58609     -218735.58      0             -218265.37      19.80138     
     92100   319.90405     -218734.67      0             -218265.47     -227.08872    
     92200   317.16741     -218726.26      0             -218261.07      86.684145    
     92300   322.93378     -218728.35      0             -218254.7      -12.961322    
     92400   319.86378     -218725.47      0             -218256.33     -180.87571    
     92500   319.74964     -218734.46      0             -218265.48      432.87194    
     92600   318.44977     -218734.39      0             -218267.31     -133.88996    
     92700   318.66084     -218731.12      0             -218263.74      515.11672    
     92800   318.93136     -218725.7       0             -218257.92      660.73962    
     92900   324.54128     -218730.56      0             -218254.55      480.83038    
     93000   320.55287     -218730.22      0             -218260.06      38.205874    
     93100   318.58673     -218735.37      0             -218268.09      192.61842    
     93200   321.21345     -218737.59      0             -218266.46      256.00701    
     93300   320.79838     -218733.45      0             -218262.93      84.486175    
     93400   323.31182     -218732.21      0             -218258         968.50259    
     93500   322.2361      -218728.04      0             -218255.42      513.30756    
     93600   321.63784     -218730.36      0             -218258.61      1181.3188    
     93700   318.61046     -218733.76      0             -218266.44      937.01029    
     93800   317.21507     -218733.33      0             -218268.07     -629.88641    
     93900   321.95706     -218735.26      0             -218263.04      1083.5157    
     94000   320.99621     -218727.8       0             -218256.99     -1181.3817    
     94100   325.33739     -218733.82      0             -218256.64     -204.19586    
     94200   320.49903     -218729.71      0             -218259.62     -130.9306     
     94300   320.59671     -218731.13      0             -218260.9      -619.44663    
     94400   319.118       -218730.53      0             -218262.48     -267.58064    
     94500   318.28009     -218731.63      0             -218264.8       1265.8298    
     94600   318.64206     -218734.64      0             -218267.28      336.79304    
     94700   319.85297     -218736.16      0             -218267.03      758.62501    
     94800   318.31946     -218727.52      0             -218260.63     -63.392291    
     94900   322.61427     -218729.11      0             -218255.93      547.65367    
     95000   322.1737      -218731.72      0             -218259.18     -97.465306    
     95100   322.07393     -218737.79      0             -218265.4      -1233.9811    
     95200   318.81236     -218734.46      0             -218266.85     -965.05055    
     95300   317.53878     -218730.9       0             -218265.16      490.5766     
     95400   319.11771     -218731.41      0             -218263.36      400.02526    
     95500   322.82429     -218734.34      0             -218260.85      1163.5063    
     95600   320.77385     -218726.77      0             -218256.29      1009.8208    
     95700   323.06439     -218724.82      0             -218250.98      278.14929    
     95800   320.08043     -218725.76      0             -218256.29      271.2909     
     95900   320.28117     -218733.2       0             -218263.44      126.44623    
     96000   323.32279     -218737.68      0             -218263.45     -24.565216    
     96100   318.17607     -218728.81      0             -218262.14      178.59723    
     96200   322.628       -218732.62      0             -218259.41      269.16626    
     96300   321.38255     -218727.41      0             -218256.03      1144.9266    
     96400   321.48715     -218727.83      0             -218256.3       1252.6494    
     96500   319.77233     -218732.62      0             -218263.6       1250.8236    
     96600   317.77468     -218734.46      0             -218268.38      195.73548    
     96700   319.25773     -218735.85      0             -218267.59      1462.6663    
     96800   317.84717     -218730.02      0             -218263.83      2048.5114    
     96900   321.11669     -218726.93      0             -218255.94      415.65426    
     97000   323.26535     -218726.86      0             -218252.72      385.93586    
     97100   323.23979     -218730.36      0             -218256.26     -715.09144    
     97200   319.62936     -218732.46      0             -218263.65     -321.65795    
     97300   317.72795     -218732.74      0             -218266.73     -731.97348    
     97400   320.63586     -218734.65      0             -218264.37     -122.80454    
     97500   318.79036     -218725.84      0             -218258.26      614.21822    
     97600   321.21793     -218724.18      0             -218253.05      248.79734    
     97700   325.39612     -218732.69      0             -218255.43      575.40013    
     97800   319.813       -218734.53      0             -218265.45      965.79401    
     97900   319.67223     -218733.81      0             -218264.94     -130.4075     
     98000   321.98888     -218733.16      0             -218260.89      680.93476    
     98100   319.41062     -218728.7       0             -218260.22      1423.6642    
     98200   319.66585     -218732.71      0             -218263.85      1146.439     
     98300   318.12833     -218735.46      0             -218268.85      1227.2166    
     98400   317.84214     -218733.51      0             -218267.33     -20.984284    
     98500   320.36808     -218727.11      0             -218257.23     -886.50823    
     98600   322.64086     -218728.07      0             -218254.84     -448.8884     
     98700   320.44685     -218729.57      0             -218259.56     -603.88284    
     98800   318.30908     -218731.4       0             -218264.53      804.51768    
     98900   321.20671     -218736.08      0             -218264.96      725.86823    
     99000   318.31742     -218731.15      0             -218264.27      202.66342    
     99100   321.46933     -218734.94      0             -218263.44     -359.62394    
     99200   317.92525     -218729.27      0             -218262.96      181.95775    
     99300   320.3624      -218731.23      0             -218261.35      709.19662    
     99400   323.55942     -218729.25      0             -218254.68      1613.7206    
     99500   325.70235     -218731.79      0             -218254.07      1269.9337    
     99600   317.82862     -218729.09      0             -218262.93      1345.9813    
     99700   320.21933     -218735.28      0             -218265.61      49.033136    
     99800   317.14383     -218730.56      0             -218265.4       764.18998    
     99900   321.16082     -218733.36      0             -218262.31     -428.96684    
    100000   322.25591     -218726.28      0             -218253.62     -390.44137    
    100100   321.31724     -218722.45      0             -218251.17     -50.674114    
    100200   316.97758     -218723.36      0             -218258.45      647.76896    
    100300   321.05962     -218733.09      0             -218262.19     -113.97728    
    100400   320.50153     -218732.82      0             -218262.74      12.779593    
    100500   317.11924     -218727.25      0             -218262.12      696.57243    
    100600   321.73291     -218731.02      0             -218259.13     -498.13262    
    100700   321.37399     -218726.92      0             -218255.55      221.98293    
    100800   327.04067     -218734.52      0             -218254.84      977.29704    
    100900   318.34625     -218730.8       0             -218263.88      1070.8039    
    101000   316.81563     -218731.06      0             -218266.38      339.22695    
    101100   320.39039     -218735.35      0             -218265.43      936.40747    
    101200   319.36053     -218728.38      0             -218259.97      324.48516    
    101300   323.97824     -218726.3       0             -218251.12      927.04307    
    101400   325.50573     -218729.6       0             -218252.18      754.12685    
    101500   322.87205     -218730.9       0             -218257.34      642.5188     
    101600   318.76311     -218729.29      0             -218261.76      139.64702    
    101700   318.43948     -218732.59      0             -218265.53     -564.40902    
    101800   319.09735     -218735.45      0             -218267.43     -625.8827     
    101900   321.46813     -218732.66      0             -218261.16      234.93425    
    102000   322.7909      -218728.08      0             -218254.64      160.89629    
    102100   322.38317     -218730.25      0             -218257.41      1399.5932    
    102200   319.65104     -218732.79      0             -218263.95      844.78593    
    102300   321.32603     -218736.39      0             -218265.1       995.16222    
    102400   319.64862     -218733.53      0             -218264.7       982.77711    
    102500   320.10847     -218731.39      0             -218261.88      8.6042886    
    102600   319.61496     -218729.94      0             -218261.15      254.14171    
    102700   319.29799     -218728.38      0             -218260.06     -81.474265    
    102800   318.35166     -218724.75      0             -218257.82     -92.31167     
    102900   318.80732     -218726.25      0             -218258.65     -1703.2944    
    103000   320.28374     -218731.95      0             -218262.19     -191.92956    
    103100   321.08994     -218736.97      0             -218266.02     -347.97208    
    103200   318.67994     -218735.72      0             -218268.31      1408.7825    
    103300   319.53138     -218733.7       0             -218265.03      1232.8725    
    103400   323.58826     -218730.98      0             -218256.37      974.61706    
    103500   323.13036     -218729.07      0             -218255.13      672.05754    
    103600   322.45815     -218733.93      0             -218260.97      609.85238    
    103700   319.68057     -218734.19      0             -218265.31      924.95008    
    103800   317.76152     -218730.96      0             -218264.9       689.03271    
    103900   317.77376     -218728.87      0             -218262.78      191.5525     
    104000   318.9243      -218726.57      0             -218258.8       64.82098     
    104100   325.04431     -218726.95      0             -218250.21     -290.20545    
    104200   325.18639     -218726.01      0             -218249.05     -512.40078    
    104300   319.50281     -218726.95      0             -218258.33     -63.545083    
    104400   320.15803     -218730.94      0             -218261.36     -1094.1885    
    104500   318.75639     -218730.99      0             -218263.47     -382.50761    
    104600   320.0392      -218734.99      0             -218265.58      248.61495    
    104700   317.52811     -218730.96      0             -218265.24      364.7405     
    104800   322.21553     -218732.6       0             -218260         375.68441    
    104900   321.74915     -218726.96      0             -218255.05      605.72899    
    105000   319.60545     -218726.1       0             -218257.33      1139.7933    
    105100   318.58123     -218734.52      0             -218267.25      127.95827    
    105200   317.55412     -218734.28      0             -218268.52      509.7161     
    105300   321.22492     -218735.71      0             -218264.56      599.18503    
    105400   319.86517     -218728.99      0             -218259.84     -230.76853    
    105500   320.14107     -218725.86      0             -218256.3      -536.82884    
    105600   324.90643     -218725.1       0             -218248.56     -785.10061    
    105700   325.68586     -218726.55      0             -218248.86      242.36737    
    105800   321.21194     -218729.7       0             -218258.58      397.39499    
    105900   318.09193     -218730.21      0             -218263.66      729.33993    
    106000   317.49811     -218731.62      0             -218265.94      812.67353    
    106100   319.379       -218733.82      0             -218265.38     -97.208339    
    106200   320.8902      -218729.67      0             -218259.01      739.23288    
    106300   323.17982     -218728.28      0             -218254.27      975.28982    
    106400   321.74021     -218729.63      0             -218257.73      1296.9786    
    106500   320.0359      -218735.91      0             -218266.5       125.08368    
    106600   315.17031     -218729.62      0             -218267.35     -736.33522    
    106700   319.03601     -218731.73      0             -218263.79      356.11401    
    106800   322.46693     -218731.39      0             -218258.42     -119.80994    
    106900   323.35605     -218731.05      0             -218256.78      513.84244    
    107000   320.52885     -218735.53      0             -218265.4      -653.43172    
    107100   316.69128     -218734.5       0             -218270.01     -1031.7198    
    107200   318.08045     -218732.43      0             -218265.89     -269.73344    
    107300   316.4369      -218725.05      0             -218260.92     -93.483299    
    107400   319.99913     -218727.91      0             -218258.56      266.34856    
    107500   320.06502     -218730.19      0             -218260.75      691.4691     
    107600   315.15657     -218733.88      0             -218271.64      950.63478    
    107700   315.19063     -218734.15      0             -218271.85      475.7515     
    107800   323.06413     -218738.72      0             -218264.88      617.55163    
    107900   318.30986     -218728         0             -218261.14      678.71196    
    108000   321.8892      -218732.11      0             -218259.99     -43.796       
    108100   320.24024     -218731.43      0             -218261.72      22.539611    
    108200   317.27947     -218736.56      0             -218271.2       60.756516    
    108300   313.82861     -218732.72      0             -218272.42      682.08267    
    108400   316.32985     -218730.33      0             -218266.36      20.693881    
    108500   320.53756     -218732.56      0             -218262.42     -54.203399    
    108600   321.46392     -218732.77      0             -218261.28     -216.46282    
    108700   320.20544     -218731.49      0             -218261.84      18.287528    
    108800   319.47452     -218734.19      0             -218265.61      438.77763    
    108900   316.5241      -218736.09      0             -218271.84      265.97091    
    109000   314.16128     -218730.9       0             -218270.11     -248.36102    
    109100   319.19672     -218729.2       0             -218261.03     -37.294192    
    109200   322.33554     -218731.56      0             -218258.79      46.346196    
    109300   318.39558     -218727.73      0             -218260.73      909.28279    
    109400   319.80094     -218735.64      0             -218266.59      782.48154    
    109500   318.66172     -218737.23      0             -218269.84     -42.633642    
    109600   321.90267     -218734.33      0             -218262.19      1211.7463    
    109700   322.30148     -218727.17      0             -218254.44     -500.41495    
    109800   320.93358     -218728.64      0             -218257.92     -450.5989     
    109900   320.58834     -218735.14      0             -218264.93      249.21246    
    110000   321.13401     -218738.41      0             -218267.39      495.59834    
    110100   318.6489      -218731.37      0             -218264.01     -1217.2665    
    110200   319.88905     -218725.66      0             -218256.47     -519.04642    
    110300   322.57281     -218728.68      0             -218255.56      766.8861     
    110400   321.74318     -218730.36      0             -218258.46      89.608829    
    110500   322.36702     -218735.28      0             -218262.46      555.35854    
    110600   317.34669     -218732.94      0             -218267.48      1625.7428    
    110700   317.3546      -218733.14      0             -218267.67      492.91293    
    110800   323.04737     -218731         0             -218257.19     -1146.3415    
    110900   323.81621     -218729.55      0             -218254.61     -700.90511    
    111000   322.45084     -218730.37      0             -218257.43     -612.55286    
    111100   319.63889     -218733.88      0             -218265.06      229.79128    
    111200   317.51253     -218731.96      0             -218266.26     -612.70519    
    111300   316.01699     -218727.05      0             -218263.54     -869.36879    
    111400   318.55626     -218727.5       0             -218260.27      1131.1322    
    111500   322.01669     -218729.18      0             -218256.87      1155.619     
    111600   324.64096     -218726.41      0             -218250.26      136.54449    
    111700   322.50715     -218724.75      0             -218251.73      182.83601    
    111800   317.96118     -218727.81      0             -218261.45      324.43978    
    111900   317.46928     -218729.79      0             -218264.15      592.32517    
    112000   317.97606     -218730.81      0             -218264.43     -291.14434    
    112100   321.21246     -218732.47      0             -218261.34     -58.348045    
    112200   321.75211     -218726.87      0             -218254.95      1725.7926    
    112300   323.11061     -218726.81      0             -218252.9       275.02932    
    112400   319.42037     -218730.56      0             -218262.07      143.50298    
    112500   319.78086     -218735.46      0             -218266.43      1318.4488    
    112600   314.35551     -218727.6       0             -218266.53      343.20122    
    112700   319.02059     -218730.46      0             -218262.55     -111.45097    
    112800   323.83854     -218729.81      0             -218254.83     -77.981       
    112900   320.50579     -218723.34      0             -218253.25      235.14447    
    113000   319.32724     -218727.6       0             -218259.24     -484.44021    
    113100   321.02769     -218733.64      0             -218262.79     -299.14551    
    113200   316.33438     -218727.72      0             -218263.75      822.55671    
    113300   321.00404     -218733.6       0             -218262.78      599.79487    
    113400   322.37053     -218732.96      0             -218260.13     -107.4733     
    113500   322.78456     -218730.72      0             -218257.29      324.25605    
    113600   320.13106     -218729.84      0             -218260.3       269.21153    
    113700   315.70305     -218730.97      0             -218267.92     -277.1808     
    113800   316.62079     -218733.69      0             -218269.3      -130.73917    
    113900   319.15502     -218732.34      0             -218264.23      1430.7828    
    114000   323.11352     -218730.09      0             -218256.18      1472.9399    
    114100   322.37368     -218729.71      0             -218256.88     -888.41579    
    114200   319.82199     -218731.38      0             -218262.29     -911.37397    
    114300   320.73993     -218735.76      0             -218265.33     -1116.2608    
    114400   316.07003     -218729.6       0             -218266.01      308.47846    
    114500   322.23349     -218733.75      0             -218261.13     -112.10808    
    114600   321.35667     -218725.59      0             -218254.25      742.52892    
    114700   323.16805     -218729.71      0             -218255.72     -479.66915    
    114800   319.46407     -218732.19      0             -218263.63      616.80685    
    114900   314.22288     -218727.74      0             -218266.87      119.36093    
    115000   320.68105     -218734.85      0             -218264.51     -10.152416    
    115100   322.31858     -218734.99      0             -218262.24      1033.019     
    115200   322.06522     -218729.62      0             -218257.24      1653.091     
    115300   322.55814     -218722.44      0             -218249.34      681.0166     
    115400   321.18335     -218722.68      0             -218251.59      604.06811    
    115500   324.708       -218736.29      0             -218260.04      376.90982    
    115600   318.70624     -218730.61      0             -218263.16     -788.15257    
    115700   316.44102     -218729.62      0             -218265.49     -379.89929    
    115800   317.33557     -218730.24      0             -218264.8       376.11166    
    115900   320.59391     -218730.73      0             -218260.51      296.80178    
    116000   323.15786     -218729.14      0             -218255.16      381.13804    
    116100   323.45936     -218731.6       0             -218257.18     -108.50513    
    116200   317.51105     -218732.93      0             -218267.23     -158.26154    
    116300   319.06162     -218736.71      0             -218268.74      1116.6399    
    116400   319.21466     -218733.94      0             -218265.74      429.75023    
    116500   317.12831     -218724.65      0             -218259.51     -399.1118     
    116600   321.3053      -218729.44      0             -218258.18     -108.47892    
    116700   321.54556     -218731.96      0             -218260.34     -268.0743     
    116800   324.25281     -218738.64      0             -218263.05      476.80616    
    116900   319.89651     -218733.19      0             -218263.99      250.03496    
    117000   320.55695     -218731.34      0             -218261.17     -1106.0188    
    117100   323.02613     -218727.97      0             -218254.18     -298.05143    
    117200   321.35944     -218725.06      0             -218253.72     -372.17192    
    117300   323.93691     -218736.35      0             -218261.22     -167.81782    
    117400   321.68119     -218737.23      0             -218265.42     -464.4817     
    117500   320.29163     -218734.72      0             -218264.94      532.81887    
    117600   320.32608     -218731.37      0             -218261.54      401.11259    
    117700   322.5846      -218730.02      0             -218256.88      868.40544    
    117800   322.02891     -218723.54      0             -218251.21      147.31917    
    117900   323.53349     -218725.26      0             -218250.73     -534.05039    
    118000   325.85039     -218737.34      0             -218259.41     -395.56988    
    118100   316.74117     -218729.2       0             -218264.63      610.40228    
    118200   320.57922     -218734.53      0             -218264.33      823.00119    
    118300   322.37091     -218734.84      0             -218262.01      153.9086     
    118400   321.19073     -218726.63      0             -218255.53      362.65611    
    118500   325.63095     -218728.12      0             -218250.51      529.51226    
    118600   320.00565     -218727.17      0             -218257.81     -600.74712    
    118700   319.73781     -218732.61      0             -218263.65     -953.95865    
    118800   316.90764     -218728.15      0             -218263.34     -1190.3904    
    118900   319.29968     -218728.43      0             -218260.1      -677.21006    
    119000   318.17619     -218723.55      0             -218256.88      515.65985    
    119100   318.6731      -218725.12      0             -218257.71      1275.7005    
    119200   318.96802     -218734.83      0             -218267         890.52842    
    119300   319.07268     -218738.12      0             -218270.13      791.33559    
    119400   317.09944     -218731.56      0             -218266.47      708.38837    
    119500   317.06063     -218724.92      0             -218259.89      421.49546    
    119600   324.54072     -218734.27      0             -218258.26     -322.53033    
    119700   320.79823     -218731.33      0             -218260.81     -207.48668    
    119800   321.17654     -218734.43      0             -218263.36     -1.9086236    
    119900   319.58157     -218735.02      0             -218266.28     -382.7368     
    120000   318.06598     -218734.92      0             -218268.4      -546.78419    
    120100   315.35696     -218730.32      0             -218267.78      368.86466    
    120200   319.27121     -218729         0             -218260.72      192.75129    
    120300   324.63656     -218733.68      0             -218257.53      280.4284     
    120400   322.35101     -218733.34      0             -218260.54     -86.474416    
    120500   321.44491     -218739.62      0             -218268.16     -793.66003    
    120600   317.2188      -218737.49      0             -218272.22      70.098302    
    120700   316.25683     -218733.65      0             -218269.79      824.42704    
    120800   318.54151     -218734.02      0             -218266.81      1048.6002    
    120900   321.81187     -218734.35      0             -218262.35      1067.9055    
    121000   322.50811     -218732.15      0             -218259.12      692.3317     
    121100   321.82612     -218733.31      0             -218261.29     -138.24487    
    121200   318.42351     -218737.61      0             -218270.57     -101.03581    
    121300   316.50035     -218735.03      0             -218270.81      150.97685    
    121400   321.41434     -218737.08      0             -218265.66     -12.021721    
    121500   317.36189     -218727.6       0             -218262.12     -774.89455    
    121600   321.54767     -218731.94      0             -218260.32     -397.10288    
    121700   319.41477     -218729.68      0             -218261.18     -456.13306    
    121800   319.42179     -218733.93      0             -218265.43      581.77203    
    121900   313.14327     -218734.96      0             -218275.67      924.92221    
    122000   317.92986     -218739.28      0             -218272.97     -10.479153    
    122100   319.2217      -218735.76      0             -218267.55     -7.7620904    
    122200   319.28685     -218731.91      0             -218263.61      294.6824     
    122300   321.30123     -218731.7       0             -218260.44      306.96222    
    122400   322.75757     -218733.78      0             -218260.39      252.8533     
    122500   316.4812      -218733.26      0             -218269.08      764.24905    
    122600   318.3893      -218740.09      0             -218273.11      745.83744    
    122700   317.50981     -218733.04      0             -218267.35      661.85711    
    122800   321.94485     -218734.32      0             -218262.12     -286.78793    
    122900   320.32152     -218730.84      0             -218261.02      770.02381    
    123000   317.54773     -218728.52      0             -218262.77      651.39561    
    123100   317.50603     -218733.89      0             -218268.2      -709.50612    
    123200   314.25268     -218736.59      0             -218275.67     -751.89587    
    123300   318.54544     -218738.96      0             -218271.74      471.23078    
    123400   319.01137     -218733.4       0             -218265.51      1110.8998    
    123500   320.64661     -218734.14      0             -218263.85      464.91065    
    123600   320.12968     -218732.18      0             -218262.64      260.4234     
    123700   318.87575     -218730.46      0             -218262.76      236.66287    
    123800   318.17865     -218731.87      0             -218265.19      543.23324    
    123900   320.56752     -218737.87      0             -218267.68     -584.79614    
    124000   317.90476     -218735.65      0             -218269.37     -19.351162    
    124100   321.916       -218736.24      0             -218264.08     -107.86318    
    124200   321.82321     -218729.05      0             -218257.03     -696.61983    
    124300   322.7141      -218730.49      0             -218257.16     -324.80872    
    124400   317.92282     -218728.87      0             -218262.57     -330.21819    
    124500   317.60969     -218730.88      0             -218265.04     -492.59792    
    124600   321.15207     -218735.56      0             -218264.53     -118.70783    
    124700   319.94118     -218733.81      0             -218264.55     -235.45455    
    124800   320.31069     -218732.34      0             -218262.53      368.92005    
    124900   322.0624      -218729.68      0             -218257.31      194.77492    
    125000   324.52593     -218729.97      0             -218253.98      353.77978    
    125100   322.97355     -218734.41      0             -218260.7       1036.8496    
    125200   322.13579     -218739.22      0             -218266.74      958.3561     
    125300   314.86068     -218728.03      0             -218266.22     -527.13175    
    125400   319.18655     -218729.87      0             -218261.71     -457.21799    
    125500   322.32349     -218728.24      0             -218255.49     -1024.7127    
    125600   322.6149      -218726.83      0             -218253.65      693.06382    
    125700   320.73864     -218732.5       0             -218262.07      1010.0071    
    125800   314.86283     -218729.29      0             -218267.48      111.39415    
    125900   318.1996      -218734.17      0             -218267.47      1331.0658    
    126000   318.25603     -218729.68      0             -218262.89     -128.4489     
    126100   322.2086      -218728.95      0             -218256.36      480.56898    
    126200   324.58456     -218733.15      0             -218257.08     -205.01533    
    126300   320.89185     -218736.39      0             -218265.73      281.99904    
    126400   317.96132     -218734.91      0             -218268.55     -27.41231     
    126500   319.84443     -218734.96      0             -218265.84      610.74445    
    126600   320.70418     -218731.85      0             -218261.47      686.86925    
    126700   318.34288     -218725.86      0             -218258.95      574.78316    
    126800   319.33119     -218728.87      0             -218260.5       870.19259    
    126900   316.05827     -218732.17      0             -218268.6       324.4823     
    127000   317.64303     -218736.44      0             -218270.55     -376.70973    
    127100   317.09576     -218730.93      0             -218265.84      221.18706    
    127200   321.10218     -218729.1       0             -218258.14     -530.14581    
    127300   321.42946     -218730.09      0             -218258.64     -150.17968    
    127400   321.83762     -218734.92      0             -218262.88     -328.70433    
    127500   320.43902     -218737.32      0             -218267.32      370.40468    
    127600   317.24775     -218735.96      0             -218270.65     -193.01209    
    127700   319.34252     -218740.11      0             -218271.72      924.49291    
    127800   321.24007     -218736.27      0             -218265.1       1462.8232    
    127900   321.77826     -218731.21      0             -218259.25      1246.9838    
    128000   322.86899     -218732.1       0             -218258.54      1432.5729    
    128100   318.50551     -218732.42      0             -218265.26      1220.1062    
    128200   315.52827     -218732.05      0             -218269.26      258.26013    
    128300   318.4917      -218734.54      0             -218267.4      -783.79538    
    128400   319.17237     -218733.64      0             -218265.51     -727.33983    
    128500   319.27986     -218731.44      0             -218263.15     -755.35307    
    128600   317.05456     -218725.38      0             -218260.35     -30.777696    
    128700   321.12902     -218728.19      0             -218257.19     -213.95396    
    128800   321.04405     -218730.62      0             -218259.74      638.79982    
    128900   319.98433     -218737.68      0             -218268.36      244.98125    
    129000   318.27144     -218736.72      0             -218269.91      1164.9268    
    129100   321.45511     -218736.25      0             -218264.76      1030.9864    
    129200   323.35273     -218732.82      0             -218258.56      787.16181    
    129300   321.92947     -218730.91      0             -218258.73     -261.72194    
    129400   323.13462     -218734.85      0             -218260.9      -1006.7098    
    129500   316.5853      -218728.4       0             -218264.06      727.48166    
    129600   320.34674     -218735.62      0             -218265.76     -694.73114    
    129700   315.97393     -218730.02      0             -218266.58     -556.34751    
    129800   319.64179     -218731.1       0             -218262.28     -414.6273     
    129900   321.32582     -218728.45      0             -218257.15     -446.98911    
    130000   323.06259     -218730.42      0             -218256.58      355.24077    
    130100   317.2743      -218730.22      0             -218264.87      1089.2174    
    130200   320.72497     -218739.54      0             -218269.13      835.80479    
    130300   317.79403     -218733.36      0             -218267.25      138.11063    
    130400   319.50814     -218731.58      0             -218262.95      112.10773    
    130500   320.10833     -218730.76      0             -218261.25      1585.2249    
    130600   320.78517     -218731.86      0             -218261.36      438.33452    
    130700   317.9564      -218728.75      0             -218262.4       214.55199    
    130800   323.88905     -218738.1       0             -218263.04      1777.0892    
    130900   322.70219     -218737         0             -218263.68      218.95567    
    131000   320.91273     -218734.59      0             -218263.9       506.30533    
    131100   319.07246     -218731.35      0             -218263.36      1032.3298    
    131200   319.98297     -218730.17      0             -218260.84      786.41589    
    131300   323.05109     -218727.75      0             -218253.92     -132.10505    
    131400   322.43919     -218729.12      0             -218256.19      589.02609    
    131500   321.81865     -218735.8       0             -218263.78      438.53628    
    131600   319.23214     -218735.66      0             -218267.44      1090.2055    
    131700   318.6348      -218733.25      0             -218265.91      140.15284    
    131800   322.10792     -218730.36      0             -218257.92     -189.37249    
    131900   326.01413     -218731.5       0             -218253.34      271.32817    
    132000   323.90336     -218731.51      0             -218256.43      85.727489    
    132100   323.66918     -218735.06      0             -218260.33     -666.26678    
    132200   317.7689      -218730.57      0             -218264.5       1094.9245    
    132300   318.93922     -218733.4       0             -218265.61     -385.7246     
    132400   320.16153     -218732.13      0             -218262.54      447.90696    
    132500   321.1606      -218724.31      0             -218253.26     -64.982196    
    132600   321.91615     -218725.48      0             -218253.32      541.66013    
    132700   324.30444     -218735.44      0             -218259.78      185.20473    
    132800   322.93803     -218736.77      0             -218263.12      1032.4785    
    132900   317.65693     -218731.02      0             -218265.11      913.1677     
    133000   320.80123     -218735.25      0             -218264.73      931.77719    
    133100   322.3296      -218730.97      0             -218258.21      743.48982    
    133200   323.41166     -218727.93      0             -218253.58      51.352957    
    133300   323.90344     -218732.17      0             -218257.09     -781.72146    
    133400   318.26385     -218732.88      0             -218266.08     -1449.2487    
    133500   319.07156     -218733.77      0             -218265.79      499.87558    
    133600   322.44484     -218735.66      0             -218262.73     -465.61514    
    133700   321.23187     -218731.38      0             -218260.23      1124.2798    
    133800   323.50016     -218730.76      0             -218256.28      378.94211    
    133900   320.62043     -218725.01      0             -218254.76     -334.43779    
    134000   323.16843     -218735.35      0             -218261.35      538.69003    
    134100   319.94877     -218736.65      0             -218267.38      939.55051    
    134200   318.85391     -218735.34      0             -218267.67     -259.9914     
    134300   318.13138     -218729.84      0             -218263.23      431.41434    
    134400   323.96145     -218729.37      0             -218254.21      533.61876    
    134500   325.75662     -218730.38      0             -218252.59      73.208912    
    134600   321.12262     -218727.82      0             -218256.83     -219.05949    
    134700   319.51548     -218730.58      0             -218261.94     -1.961857     
    134800   319.15449     -218733.78      0             -218265.67      36.950058    
    134900   320.57383     -218736.68      0             -218266.49     -147.58454    
    135000   319.18348     -218728.6       0             -218260.44     -328.04585    
    135100   323.38471     -218727.95      0             -218253.63     -961.68078    
    135200   321.60728     -218727.4       0             -218255.7       409.8337     
    135300   316.81716     -218727.48      0             -218262.8      -477.04482    
    135400   319.52158     -218733.52      0             -218264.87     -385.73669    
    135500   320.5136      -218734.22      0             -218264.12      110.66989    
    135600   326.73744     -218740         0             -218260.76      679.4876     
    135700   321.887       -218729.5       0             -218257.38      510.59784    
    135800   321.22095     -218728.72      0             -218257.58      94.192433    
    135900   319.91028     -218733.54      0             -218264.33      1317.182     
    136000   317.49618     -218735.04      0             -218269.36      1240.5035    
    136100   318.06791     -218732.95      0             -218266.43      296.15536    
    136200   322.44012     -218732.1       0             -218259.17     -429.29267    
    136300   327.02766     -218736.2       0             -218256.54     -314.15086    
    136400   321.2504      -218730.06      0             -218258.88      286.17539    
    136500   319.60189     -218731.07      0             -218262.3       579.03031    
    136600   318.13535     -218733.28      0             -218266.66      1302.611     
    136700   319.38697     -218737.72      0             -218269.27      249.93969    
    136800   318.65288     -218732.73      0             -218265.36      675.91459    
    136900   324.48548     -218733.16      0             -218257.23      988.28054    
    137000   321.38917     -218727.88      0             -218256.5       47.495202    
    137100   319.22735     -218731.53      0             -218263.31     -378.92714    
    137200   320.27923     -218736.95      0             -218267.2       367.78148    
    137300   319.05806     -218733.45      0             -218265.48     -1187.5771    
    137400   323.95866     -218738.45      0             -218263.29     -115.09282    
    137500   320.87822     -218733.24      0             -218262.6       72.896486    
    137600   322.15982     -218734.14      0             -218261.62     -216.67488    
    137700   320.89386     -218731.12      0             -218260.46      720.60642    
    137800   318.39639     -218726.89      0             -218259.89      335.81086    
    137900   321.08177     -218733.61      0             -218262.67      828.65685    
    138000   319.45388     -218736.87      0             -218268.32      215.71717    
    138100   319.28991     -218738.26      0             -218269.95     -214.58561    
    138200   321.30424     -218733.93      0             -218262.66      261.9972     
    138300   321.26368     -218728.77      0             -218257.57      1155.7569    
    138400   321.52017     -218731.7       0             -218260.12      732.14212    
    138500   319.96988     -218733.81      0             -218264.5       137.74735    
    138600   319.73178     -218738.36      0             -218269.4       231.74985    
    138700   315.95759     -218737.48      0             -218274.06     -343.44985    
    138800   313.79054     -218734.61      0             -218274.37      197.63561    
    138900   322.57013     -218737.9       0             -218264.78      530.50469    
    139000   323.92024     -218736         0             -218260.9       666.56854    
    139100   318.07912     -218726.27      0             -218259.74      315.24278    
    139200   323.81976     -218735.79      0             -218260.84     -125.45913    
    139300   319.32816     -218735.86      0             -218267.5       40.955914    
    139400   318.2665      -218737.97      0             -218271.16     -1526.0763    
    139500   321.05803     -218735.89      0             -218264.99      75.005194    
    139600   322.5044      -218730.98      0             -218257.96     -1080.5181    
    139700   319.84898     -218727.9       0             -218258.77     -111.8178     
    139800   318.96916     -218730.49      0             -218262.65     -121.30739    
    139900   322.63435     -218741.53      0             -218268.32     -375.62983    
    140000   317.20766     -218734.43      0             -218269.17      283.1886     
    140100   320.75497     -218728.49      0             -218258.03      461.86131    
    140200   326.88617     -218734.29      0             -218254.85      448.84083    
    140300   321.67244     -218731.35      0             -218259.55      471.47049    
    140400   320.16243     -218734.81      0             -218265.23      948.89709    
    140500   318.3247      -218734.95      0             -218268.06      881.62226    
    140600   321.21539     -218736.67      0             -218265.54     -89.733291    
    140700   326.89685     -218734.1       0             -218254.64      58.168354    
    140800   323.84525     -218730.14      0             -218255.15     -652.49343    
    140900   321.88041     -218732.8       0             -218260.7       413.3365     
    141000   319.97684     -218735.29      0             -218265.97      641.67551    
    141100   317.89795     -218733.11      0             -218266.84     -261.25649    
    141200   322.54721     -218736.05      0             -218262.96      419.29156    
    141300   325.05419     -218729.5       0             -218252.74      812.2077     
    141400   325.55225     -218728.68      0             -218251.19      294.36508    
    141500   323.77147     -218732.03      0             -218257.15      1235.9719    
    141600   321.0632      -218733.63      0             -218262.72     -613.46168    
    141700   319.50946     -218733.67      0             -218265.04     -959.50286    
    141800   320.88349     -218737.33      0             -218266.69     -777.99723    
    141900   314.72243     -218726.54      0             -218264.93      132.26036    
    142000   322.38279     -218730.38      0             -218257.54      665.45339    
    142100   319.14849     -218724.31      0             -218256.21      454.92148    
    142200   320.60554     -218733.75      0             -218263.51     -242.29643    
    142300   316.97606     -218733.03      0             -218268.12      653.48601    
    142400   316.97126     -218731.99      0             -218267.08      368.34289    
    142500   321.54122     -218734.82      0             -218263.21      171.10394    
    142600   319.0274      -218728.17      0             -218260.25      723.17297    
    142700   320.23673     -218730.78      0             -218261.08      415.05584    
    142800   319.36652     -218730.38      0             -218261.96     -41.183478    
    142900   320.65951     -218733.17      0             -218262.86     -49.512521    
    143000   319.21076     -218733.97      0             -218265.78     -34.120067    
    143100   319.09724     -218740.05      0             -218272.02      1378.5525    
    143200   318.58135     -218743.68      0             -218276.41      570.30468    
    143300   320.72275     -218738.98      0             -218268.57     -265.39801    
    143400   320.15638     -218732.2       0             -218262.62      109.07891    
    143500   320.63849     -218730.75      0             -218260.46     -394.84095    
    143600   321.60265     -218731.21      0             -218259.51     -546.18828    
    143700   317.70372     -218730.71      0             -218264.72     -458.59441    
    143800   318.33678     -218737.98      0             -218271.07     -216.15211    
    143900   314.89985     -218732.8       0             -218270.93     -26.438842    
    144000   317.43452     -218725.34      0             -218259.75     -441.10818    
    144100   321.17658     -218729.49      0             -218258.41     -481.51006    
    144200   320.07327     -218731.31      0             -218261.86      659.99281    
    144300   319.5352      -218736.14      0             -218267.48      1727.3635    
    144400   317.60999     -218735.59      0             -218269.75     -549.49709    
    144500   319.96319     -218733.32      0             -218264.03      1068.43      
    144600   320.76329     -218725.89      0             -218255.43      647.6423     
    144700   322.84642     -218731.19      0             -218257.67     -873.6397     
    144800   317.95134     -218730.71      0             -218264.36     -520.82957    
    144900   316.76086     -218732.23      0             -218267.64      557.36351    
    145000   319.59716     -218735.36      0             -218266.6       230.21139    
    145100   319.30992     -218731.07      0             -218262.73      479.19296    
    145200   324.55253     -218728.16      0             -218252.13      1415.045     
    145300   323.50409     -218728.99      0             -218254.5       619.24489    
    145400   320.96495     -218732.31      0             -218261.55      344.31771    
    145500   320.8413      -218736.37      0             -218265.79      98.44461     
    145600   317.81809     -218732.65      0             -218266.5      -525.76243    
    145700   320.18802     -218732.35      0             -218262.73     -564.11251    
    145800   323.8842      -218728.61      0             -218253.56     -29.624124    
    145900   323.43812     -218725.63      0             -218251.24      441.04834    
    146000   324.7258      -218734.6       0             -218258.32      223.56517    
    146100   323.34815     -218735.19      0             -218260.93      610.93621    
    146200   321.56814     -218737.33      0             -218265.68      519.58094    
    146300   318.51062     -218736.82      0             -218269.66      1957.6515    
    146400   317.75161     -218734.25      0             -218268.2       453.34175    
    146500   323.49836     -218734.49      0             -218260.01      575.67415    
    146600   321.36013     -218728.13      0             -218256.79      986.53393    
    146700   320.42622     -218730.06      0             -218260.09      381.84276    
    146800   320.00332     -218732.12      0             -218262.77     -586.00346    
    146900   320.86652     -218735.12      0             -218264.5       132.84322    
    147000   318.62956     -218730.95      0             -218263.61     -138.75278    
    147100   317.20809     -218728.61      0             -218263.35     -111.17852    
    147200   318.42422     -218732.72      0             -218265.68     -762.04429    
    147300   318.54068     -218738.45      0             -218271.24     -846.87297    
    147400   318.51799     -218738.48      0             -218271.31     -430.48126    
    147500   317.69908     -218729.82      0             -218263.85     -170.04616    
    147600   321.57885     -218731.23      0             -218259.57      1048.0697    
    147700   320.5601      -218730.58      0             -218260.41      1114.2938    
    147800   318.06239     -218732.63      0             -218266.12      132.14508    
    147900   315.47876     -218735.77      0             -218273.05     -118.25584    
    148000   320.19257     -218740.5       0             -218270.87      110.75474    
    148100   320.81407     -218737.13      0             -218266.59     -491.19767    
    148200   322.92805     -218735.31      0             -218261.67      128.54267    
    148300   319.94754     -218729.11      0             -218259.84     -489.27043    
    148400   319.4149      -218732.34      0             -218263.85     -1585.9414    
    148500   316.01945     -218737.67      0             -218274.16      174.87093    
    148600   317.58071     -218739.28      0             -218273.48     -966.20604    
    148700   319.38348     -218735.09      0             -218266.64     -562.75553    
    148800   323.85047     -218738.47      0             -218263.47      774.02081    
    148900   318.73889     -218729.49      0             -218261.99      588.90363    
    149000   320.23511     -218729.89      0             -218260.2       750.45369    
    149100   319.16128     -218731.66      0             -218263.54      1305.261     
    149200   319.95029     -218739.19      0             -218269.91      360.09336    
    149300   317.49512     -218736.4       0             -218270.72      780.215      
    149400   318.93942     -218731.12      0             -218263.32      1015.5382    
    149500   320.18871     -218729.64      0             -218260.02      234.43493    
    149600   319.49643     -218730.24      0             -218261.63     -84.128523    
    149700   320.99531     -218732.45      0             -218261.65     -339.84072    
    149800   316.95093     -218731.07      0             -218266.19     -1552.6772    
    149900   318.42975     -218740.29      0             -218273.24     -597.42671    
    150000   319.52526     -218739         0             -218270.35     -123.12442    
    150100   319.93713     -218733.69      0             -218264.43      747.30289    
    150200   321.78163     -218734.89      0             -218262.92      268.49314    
    150300   321.35471     -218732.95      0             -218261.61      198.83299    
    150400   319.81867     -218730.8       0             -218261.72     -39.277612    
    150500   318.01518     -218733.27      0             -218266.84      267.04062    
    150600   315.96542     -218734.92      0             -218271.49      453.71763    
    150700   317.23805     -218734.31      0             -218269.01      1323.3408    
    150800   319.61287     -218728         0             -218259.21      905.46094    
    150900   320.76379     -218728.78      0             -218258.31      518.5352     
    151000   316.51368     -218726.86      0             -218262.62     -62.013321    
    151100   321.73275     -218738.37      0             -218266.48     -228.63055    
    151200   315.41473     -218730.93      0             -218268.3      -844.16521    
    151300   317.44999     -218736.23      0             -218270.62     -1058.5297    
    151400   317.70056     -218731.99      0             -218266.01      186.00381    
    151500   321.28669     -218731.12      0             -218259.88     -808.31582    
    151600   323.40246     -218732.82      0             -218258.48      91.880055    
    151700   317.49238     -218729.07      0             -218263.4       453.04395    
    151800   318.60631     -218738.38      0             -218271.08     -194.27645    
    151900   318.90026     -218739.13      0             -218271.39     -458.14177    
    152000   316.14399     -218730.7       0             -218267.01     -444.85163    
    152100   319.54499     -218732.62      0             -218263.93     -703.33163    
    152200   321.88926     -218735.4       0             -218263.28      846.59643    
    152300   323.31827     -218737.87      0             -218263.65      247.53269    
    152400   321.17277     -218736.32      0             -218265.25      1748.7629    
    152500   318.08489     -218734.71      0             -218268.17      67.532269    
    152600   318.91538     -218735.48      0             -218267.72      958.39632    
    152700   319.52534     -218730.73      0             -218262.08     -165.83448    
    152800   321.82487     -218728.1       0             -218256.07     -163.55549    
    152900   321.58826     -218728.65      0             -218256.97     -318.68151    
    153000   321.89603     -218736.49      0             -218264.36     -604.02056    
    153100   322.61282     -218740.84      0             -218267.66     -230.63736    
    153200   317.93021     -218733.05      0             -218266.74      631.82996    
    153300   321.6946      -218733.3       0             -218261.46      168.7639     
    153400   324.2558      -218735.04      0             -218259.45      31.776399    
    153500   319.17413     -218730.58      0             -218262.44      54.267854    
    153600   316.60237     -218735.6       0             -218271.23      869.99098    
    153700   317.86726     -218738.38      0             -218272.16      517.02156    
    153800   321.15295     -218737.62      0             -218266.58      697.1074     
    153900   317.95411     -218729.84      0             -218263.49     -921.37634    
    154000   322.93306     -218735.6       0             -218261.95     -563.46387    
    154100   320.41325     -218733.33      0             -218263.38     -36.311184    
    154200   321.33218     -218735.01      0             -218263.71      217.87119    
    154300   320.06358     -218732.48      0             -218263.04      1208.2459    
    154400   319.93615     -218731.19      0             -218261.93      385.24746    
    154500   322.27225     -218735.45      0             -218262.77     -1125.6367    
    154600   320.89539     -218735.29      0             -218264.62     -997.84466    
    154700   320.43964     -218736         0             -218266.01     -871.72193    
    154800   319.24851     -218736.23      0             -218267.99      6.0960461    
    154900   318.23533     -218734.35      0             -218267.59      1090.3506    
    155000   321.5901      -218734.06      0             -218262.38      1141.8736    
    155100   318.90288     -218725.21      0             -218257.47      641.14415    
    155200   322.05399     -218731.83      0             -218259.47     -195.67064    
    155300   317.40399     -218735.39      0             -218269.85     -597.42344    
    155400   317.80755     -218736.39      0             -218270.26     -435.32713    
    155500   319.74148     -218735.03      0             -218266.06     -306.70395    
    155600   320.09556     -218729.43      0             -218259.94     -1253.8275    
    155700   320.36365     -218728.33      0             -218258.45      357.90776    
    155800   321.21579     -218732.2       0             -218261.06      460.92291    
    155900   321.66176     -218734.62      0             -218262.84     -287.56704    
    156000   321.38723     -218735.74      0             -218264.36     -406.87268    
    156100   321.77331     -218736.98      0             -218265.03      1078.9994    
    156200   319.82217     -218730.78      0             -218261.7      -58.158361    
    156300   324.56851     -218732.21      0             -218256.16      283.27401    
    156400   321.91658     -218731.01      0             -218258.85     -42.122386    
    156500   320.94699     -218736.77      0             -218266.03      680.84103    
    156600   317.59944     -218734.26      0             -218268.43     -170.63892    
    156700   320.50354     -218735.69      0             -218265.6       833.23048    
    156800   319.66917     -218732.7       0             -218263.84      1109.1053    
    156900   319.71233     -218731.88      0             -218262.95      128.7597     
    157000   322.10256     -218735.35      0             -218262.92     -37.5727      
    157100   321.61891     -218735.87      0             -218264.14      30.941636    
    157200   321.12697     -218735.76      0             -218264.76     -348.60337    
    157300   317.9342      -218730.31      0             -218263.99     -560.28938    
    157400   322.92788     -218732.67      0             -218259.03      19.917831    
    157500   323.87783     -218732.28      0             -218257.25      889.8872     
    157600   317.87917     -218728.59      0             -218262.35      6.01025      
    157700   318.60419     -218735.78      0             -218268.48      544.66622    
    157800   315.8029      -218733.17      0             -218269.98      411.83094    
    157900   321.90502     -218736.82      0             -218264.68      230.88794    
    158000   321.78356     -218727.11      0             -218255.14      686.56411    
    158100   322.80687     -218729.34      0             -218255.88      303.78632    
    158200   321.03007     -218731.75      0             -218260.89      155.15685    
    158300   320.33539     -218736.49      0             -218266.64      235.41756    
    158400   317.90353     -218734.54      0             -218268.27      29.17964     
    158500   318.13132     -218731.53      0             -218264.92     -132.27028    
    158600   320.54746     -218726.26      0             -218256.11      80.216677    
    158700   325.0263      -218733.61      0             -218256.89     -487.20412    
    158800   317.57798     -218727.09      0             -218261.3       621.92807    
    158900   320.01742     -218733.41      0             -218264.04     -582.37487    
    159000   322.03076     -218737.65      0             -218265.32     -611.18178    
    159100   319.92386     -218734.13      0             -218264.89      935.18247    
    159200   321.54594     -218734.57      0             -218262.95     -28.083519    
    159300   324.21014     -218730         0             -218254.47      972.61192    
    159400   325.08295     -218729.76      0             -218252.95      180.63989    
    159500   321.38831     -218732.12      0             -218260.73      488.1355     
    159600   320.56135     -218734.08      0             -218263.9       345.04574    
    159700   321.17549     -218736.47      0             -218265.4       1193.5581    
    159800   320.67398     -218734.28      0             -218263.94     -751.61205    
    159900   321.72414     -218730.21      0             -218258.33      342.24139    
    160000   318.10617     -218720.39      0             -218253.82     -70.005927    
    160100   322.86932     -218732.91      0             -218259.36      267.12585    
    160200   318.2504      -218733.26      0             -218266.48      221.84871    
    160300   318.84567     -218734.03      0             -218266.37     -546.7635     
    160400   320.94254     -218734.43      0             -218263.7       178.38975    
    160500   321.63683     -218729.48      0             -218257.73      56.213542    
    160600   322.3795      -218726.7       0             -218253.86     -722.47145    
    160700   322.93921     -218731.55      0             -218257.89     -483.81705    
    160800   319.58186     -218735.79      0             -218267.05      693.35935    
    160900   319.2498      -218737.41      0             -218269.16     -563.06188    
    161000   318.9147      -218734.39      0             -218266.63      113.83715    
    161100   319.59818     -218728.14      0             -218259.38      487.86573    
    161200   319.32828     -218724.42      0             -218256.05      574.0935     
    161300   321.26747     -218733.34      0             -218262.13      42.774954    
    161400   319.79685     -218738.98      0             -218269.93      1792.7388    
    161500   321.2682      -218738.93      0             -218267.72     -1072.0791    
    161600   322.84183     -218736.87      0             -218263.35     -518.96437    
    161700   322.92808     -218733.45      0             -218259.81     -15.525206    
    161800   324.60992     -218732.63      0             -218256.52      901.16041    
    161900   323.51005     -218734.09      0             -218259.6       617.51531    
    162000   318.29894     -218735.23      0             -218268.37     -68.497228    
    162100   321.56184     -218740.78      0             -218269.14     -3.7694674    
    162200   321.00548     -218736.05      0             -218265.23      611.12695    
    162300   321.22931     -218729.39      0             -218258.23      388.76082    
    162400   324.57418     -218731.9       0             -218255.84     -133.90534    
    162500   318.66657     -218734.88      0             -218267.48      953.72854    
    162600   318.02151     -218737.68      0             -218271.23      1072.9609    
    162700   322.70873     -218740.64      0             -218267.31     -341.36648    
    162800   320.0838      -218730.58      0             -218261.11     -300.12658    
    162900   321.5659      -218731.2       0             -218259.56      145.39513    
    163000   320.54307     -218735.88      0             -218265.73      171.4004     
    163100   318.65989     -218738.82      0             -218271.44      1.2889277    
    163200   316.98487     -218736.14      0             -218271.21      771.49752    
    163300   318.96611     -218735.32      0             -218267.49      616.12528    
    163400   320.9496      -218735.42      0             -218264.67      844.50606    
    163500   317.84287     -218728.98      0             -218262.8      -290.11558    
    163600   324.95591     -218735.67      0             -218259.06     -140.02985    
    163700   323.68192     -218731.01      0             -218256.26      188.39273    
    163800   320.39406     -218730.6       0             -218260.67     -324.68006    
    163900   319.85358     -218737.36      0             -218268.22      254.31544    
    164000   320.51439     -218739.16      0             -218269.05      1257.0517    
    164100   319.21394     -218734.1       0             -218265.9       785.19729    
    164200   323.44892     -218732.25      0             -218257.84     -2.0450617    
    164300   323.60763     -218729.75      0             -218255.11      674.20898    
    164400   321.34114     -218730.41      0             -218259.1      -44.273805    
    164500   320.15997     -218730.95      0             -218261.37     -401.53454    
    164600   317.05159     -218731.35      0             -218266.33      283.92176    
    164700   317.69477     -218734.77      0             -218268.8       595.30036    
    164800   318.78101     -218735.4       0             -218267.84     -19.357499    
    164900   317.66287     -218727.14      0             -218261.22      933.55819    
    165000   323.17877     -218730.51      0             -218256.5       1109.3391    
    165100   321.4156      -218731.45      0             -218260.02      310.22146    
    165200   318.66392     -218735.3       0             -218267.92      369.19053    
    165300   318.14858     -218735.42      0             -218268.79     -84.00221     
    165400   317.70269     -218731.81      0             -218265.83     -518.70604    
    165500   322.6979      -218735.91      0             -218262.6       267.80956    
    165600   320.23923     -218727.68      0             -218257.98     -855.32922    
    165700   322.8746      -218726.16      0             -218252.6      -198.42303    
    165800   320.83419     -218727.37      0             -218256.8      -27.486836    
    165900   322.14835     -218737.56      0             -218265.06     -827.20678    
    166000   319.52042     -218736.07      0             -218267.42      502.43708    
    166100   318.08061     -218733.44      0             -218266.91      31.144951    
    166200   318.56838     -218729.92      0             -218262.68      92.501251    
    166300   321.83122     -218726.85      0             -218254.81      345.61984    
    166400   321.47977     -218728.42      0             -218256.9      -168.67628    
    166500   320.33555     -218732.74      0             -218262.9      -89.834474    
    166600   319.09898     -218733.46      0             -218265.43      419.52108    
    166700   318.93329     -218733.57      0             -218265.78      1184.1162    
    166800   320.95869     -218735.71      0             -218264.95      980.5256     
    166900   320.63451     -218730.58      0             -218260.3       941.14224    
    167000   324.73709     -218732.09      0             -218255.79      231.23282    
    167100   324.453       -218736.09      0             -218260.21      1158.275     
    167200   319.06409     -218735.61      0             -218267.63      103.57392    
    167300   319.87685     -218737.59      0             -218268.42     -637.24512    
    167400   322.79489     -218740.22      0             -218266.78      471.07538    
    167500   322.41723     -218733.1       0             -218260.2       853.58548    
    167600   325.24078     -218730         0             -218252.97      126.1479     
    167700   319.78601     -218724.46      0             -218255.43      937.6205     
    167800   321.20265     -218731.6       0             -218260.49     -461.91329    
    167900   320.52824     -218736.29      0             -218266.16      1331.7802    
    168000   318.33583     -218737.18      0             -218270.28      392.43168    
    168100   316.47342     -218733.57      0             -218269.39      270.99127    
    168200   322.99324     -218733.09      0             -218259.36      1123.8166    
    168300   323.2958      -218731.35      0             -218257.17      730.67674    
    168400   322.00947     -218733.73      0             -218261.43     -431.87262    
    168500   319.14115     -218734.36      0             -218266.27     -245.66199    
    168600   318.24118     -218733.09      0             -218266.32      565.40981    
    168700   322.37449     -218737.77      0             -218264.94      859.82914    
    168800   319.29517     -218731.96      0             -218263.65     -560.93037    
    168900   320.33935     -218728.31      0             -218258.47     -419.6435     
    169000   325.28383     -218731.89      0             -218254.79     -123.34252    
    169100   321.08508     -218731.16      0             -218260.22      429.65908    
    169200   321.04705     -218737.7       0             -218266.81     -980.24305    
    169300   320.68701     -218737.95      0             -218267.59      100.27537    
    169400   317.7645      -218732.39      0             -218266.32     -9.6030177    
    169500   319.98602     -218728.75      0             -218259.42     -271.50669    
    169600   327.75469     -218732.85      0             -218252.13      358.71844    
    169700   325.95619     -218735.11      0             -218257.03      1311.2675    
    169800   322.65449     -218735.75      0             -218262.51      145.88967    
    169900   319.6722      -218733.61      0             -218264.75      233.51052    
    170000   321.3027      -218738.08      0             -218266.82     -624.19757    
    170100   316.34075     -218734.55      0             -218270.57      759.97698    
    170200   317.1829      -218737.27      0             -218272.06     -296.169      
    170300   320.88337     -218735.61      0             -218264.97      277.47006    
    170400   317.01726     -218725.2       0             -218260.22      1210.2979    
    170500   322.84489     -218734.11      0             -218260.59     -102.21225    
    170600   315.04105     -218729.75      0             -218267.67      756.01725    
    170700   318.54217     -218739.9       0             -218272.69      879.49151    
    170800   318.70397     -218738.34      0             -218270.89      710.09052    
    170900   322.42063     -218739.65      0             -218266.75      732.8921     
    171000   319.36989     -218732.36      0             -218263.93      967.892      
    171100   325.14366     -218739.46      0             -218262.56     -186.64467    
    171200   319.03491     -218730.1       0             -218262.16     -580.08204    
    171300   322.65008     -218739.16      0             -218265.92      397.54655    
    171400   318.51058     -218737.36      0             -218270.19     -232.89935    
    171500   317.89659     -218736.3       0             -218270.04     -196.13733    
    171600   319.74061     -218731.7       0             -218262.73      56.168287    
    171700   320.19476     -218727.48      0             -218257.84      4.8136617    
    171800   319.60535     -218729.1       0             -218260.33      191.41872    
    171900   320.63607     -218734.28      0             -218264        -89.90268     
    172000   317.41152     -218730.91      0             -218265.36     -920.99589    
    172100   322.09272     -218738.09      0             -218265.67     -1121.3213    
    172200   320.0351      -218734.47      0             -218265.07      104.5728     
    172300   321.30782     -218733.07      0             -218261.81      385.59227    
    172400   322.41699     -218729.44      0             -218256.55      627.5056     
    172500   322.6531      -218733.53      0             -218260.29      759.418      
    172600   318.12319     -218734.47      0             -218267.87     -392.46346    
    172700   318.78325     -218736.1       0             -218268.53      1143.5787    
    172800   321.64543     -218737.06      0             -218265.3       418.55894    
    172900   320.53219     -218729.56      0             -218259.43      173.00004    
    173000   326.64405     -218729.38      0             -218250.28     -414.40476    
    173100   322.78673     -218727.17      0             -218253.74     -172.84293    
    173200   318.63866     -218726.97      0             -218259.62      594.93668    
    173300   318.5347      -218730.84      0             -218263.64     -670.50258    
    173400   320.00327     -218736.05      0             -218266.69      354.36506    
    173500   319.5451      -218737.86      0             -218269.18      27.431253    
    173600   322.20132     -218742.31      0             -218269.73      459.98425    
    173700   323.03963     -218737.31      0             -218263.51      717.32734    
    173800   323.65623     -218733.4       0             -218258.69      38.141977    
    173900   324.19086     -218735         0             -218259.51      957.20986    
    174000   322.50685     -218741.99      0             -218268.97      461.63472    
    174100   314.91919     -218733.24      0             -218271.34      348.23417    
    174200   320.44263     -218736.89      0             -218266.89      89.90706     
    174300   322.82635     -218736.31      0             -218262.82     -343.54386    
    174400   320.54268     -218731.47      0             -218261.33      296.02978    
    174500   322.47474     -218736.5       0             -218263.52      1041.0342    
    174600   318.26801     -218738.27      0             -218271.46      175.78497    
    174700   316.64113     -218737.03      0             -218272.6       153.33927    
    174800   321.55327     -218737.26      0             -218265.63     -1491.6104    
    174900   321.58742     -218732.78      0             -218261.1      -236.97098    
    175000   320.15271     -218731.4       0             -218261.82      483.52892    
    175100   321.84239     -218735.79      0             -218263.74      630.40553    
    175200   320.58697     -218738.06      0             -218267.85      591.80846    
    175300   313.52434     -218737.49      0             -218277.64      1012.1385    
    175400   314.37718     -218741.69      0             -218280.59      7.2131018    
    175500   318.02757     -218738.96      0             -218272.5       201.35475    
    175600   321.23294     -218737.87      0             -218266.71     -121.08021    
    175700   319.46901     -218731.93      0             -218263.36      647.98988    
    175800   322.81776     -218733.05      0             -218259.57     -634.13278    
    175900   321.71951     -218729.13      0             -218257.26     -707.78365    
    176000   322.18555     -218734.94      0             -218262.39     -455.63178    
    176100   316.70716     -218734.36      0             -218269.84      402.48374    
    176200   321.96476     -218742.54      0             -218270.31     -173.9409     
    176300   317.79858     -218731.87      0             -218265.75      617.4949     
    176400   319.5827      -218727.03      0             -218258.29      1475.506     
    176500   323.90419     -218733.79      0             -218258.72      1350.6639    
    176600   322.74479     -218735.28      0             -218261.9       225.91099    
    176700   322.72096     -218738.28      0             -218264.94     -416.66088    
    176800   317.61655     -218733.57      0             -218267.72     -191.08176    
    176900   321.1631      -218737.52      0             -218266.47      270.92546    
    177000   321.12866     -218729.51      0             -218258.51     -468.68016    
    177100   324.12392     -218731.22      0             -218255.83     -145.79915    
    177200   321.81526     -218735.28      0             -218263.27     -511.48373    
    177300   319.07485     -218735.21      0             -218267.22      416.35689    
    177400   318.3667      -218733.17      0             -218266.22      97.494037    
    177500   319.11347     -218731.37      0             -218263.32      49.499261    
    177600   325.36511     -218733.41      0             -218256.19      890.45347    
    177700   325.46972     -218731.25      0             -218253.88      1107.9945    
    177800   321.17945     -218735.22      0             -218264.14      675.46007    
    177900   315.07159     -218730.23      0             -218268.11      433.50376    
    178000   319.35842     -218735.83      0             -218267.43      284.19836    
    178100   320.32453     -218732.81      0             -218262.98      702.60668    
    178200   321.38878     -218728.26      0             -218256.88      367.76603    
    178300   323.64895     -218731.17      0             -218256.47      1204.9844    
    178400   317.45683     -218733.04      0             -218267.42      361.21412    
    178500   321.01349     -218740.8       0             -218269.97      136.20382    
    178600   318.28199     -218735.57      0             -218268.74      80.489844    
    178700   319.00218     -218729.33      0             -218261.45     -463.56463    
    178800   321.91579     -218730.88      0             -218258.72      353.65333    
    178900   322.61601     -218735.5       0             -218262.32      98.72371     
    179000   316.74435     -218728.76      0             -218264.19      510.99823    
    179100   319.28454     -218733.34      0             -218265.04     -504.62713    
    179200   319.18645     -218733.67      0             -218265.52      664.40043    
    179300   321.73878     -218738.5       0             -218266.6       505.90219    
    179400   318.86346     -218739.49      0             -218271.81      1238.5516    
    179500   315.5061      -218737.63      0             -218274.87     -740.29561    
    179600   320.38237     -218738.18      0             -218268.27      760.61054    
    179700   322.95128     -218735.56      0             -218261.89     -26.56315     
    179800   322.57091     -218734.89      0             -218261.77      201.73849    
    179900   319.28656     -218733.5       0             -218265.19     -39.435148    
    180000   318.32571     -218738.62      0             -218271.73     -1557.995     
    180100   315.51693     -218740.81      0             -218278.03     -1150.5692    
    180200   316.54166     -218735.19      0             -218270.91     -676.07748    
    180300   323.62896     -218738.65      0             -218263.98      231.26305    
    180400   318.77821     -218731.57      0             -218264.01      466.32868    
    180500   319.74753     -218733.65      0             -218264.67     -294.0862     
    180600   318.07006     -218733         0             -218266.49      183.72764    
    180700   320.39221     -218737.75      0             -218267.82      289.02946    
    180800   318.53913     -218733.76      0             -218266.55      917.96252    
    180900   319.29226     -218729.66      0             -218261.35     -121.72314    
    181000   321.94821     -218729.76      0             -218257.55     -584.34706    
    181100   318.06245     -218729.95      0             -218263.45      282.24711    
    181200   317.07972     -218735.41      0             -218270.34      126.38234    
    181300   316.89256     -218733.16      0             -218268.37     -853.65279    
    181400   322.89032     -218737.37      0             -218263.79     -698.97347    
    181500   319.81233     -218732.01      0             -218262.93     -848.79989    
    181600   321.21372     -218735.75      0             -218264.62     -675.88381    
    181700   315.92256     -218738.32      0             -218274.95      585.80513    
    181800   316.54555     -218739.9       0             -218275.62     -1099.6433    
    181900   319.27189     -218736.42      0             -218268.14      565.91608    
    182000   321.08346     -218734.58      0             -218263.64      704.53854    
    182100   321.48508     -218733.81      0             -218262.28      146.48721    
    182200   321.51605     -218735.64      0             -218264.07     -28.139864    
    182300   316.84779     -218737.57      0             -218272.84     -120.34124    
    182400   316.50863     -218739.89      0             -218275.66     -91.72715     
    182500   318.96955     -218737.64      0             -218269.8      -599.2516     
    182600   320.02725     -218735.03      0             -218265.64     -999.7236     
    182700   318.41439     -218730.87      0             -218263.84     -762.04518    
    182800   322.76369     -218735.69      0             -218262.29     -802.55251    
    182900   319.49635     -218730.98      0             -218262.37     -177.71103    
    183000   319.23589     -218734.65      0             -218266.42      333.64275    
    183100   318.59208     -218738.89      0             -218271.61      1024.8269    
    183200   316.86205     -218736.4       0             -218271.65      646.80606    
    183300   320.26518     -218733.04      0             -218263.3       1179.7588    
    183400   324.77626     -218734.39      0             -218258.03      1325.1161    
    183500   321.30759     -218732.66      0             -218261.39      274.81614    
    183600   315.34599     -218728.91      0             -218266.39      511.90726    
    183700   321.4668      -218738.71      0             -218267.21      503.08733    
    183800   318.51873     -218734.1       0             -218266.92      481.00824    
    183900   316.91795     -218729.71      0             -218264.88      467.53356    
    184000   323.92253     -218729.77      0             -218254.67     -190.23457    
    184100   323.31141     -218725.29      0             -218251.08     -468.02211    
    184200   320.1753      -218729.36      0             -218259.75      581.89       
    184300   318.1013      -218732.45      0             -218265.89      1128.3079    
    184400   319.27286     -218736.31      0             -218268.03      526.40947    
    184500   320.68031     -218739.93      0             -218269.58      1122.8555    
    184600   324.51996     -218742.76      0             -218266.78      723.77483    
    184700   320.7629      -218729.81      0             -218259.34      0.26898394   
    184800   323.20611     -218731.18      0             -218257.13      716.87437    
    184900   320.53467     -218733.59      0             -218263.46      178.97361    
    185000   316.33626     -218733.6       0             -218269.63     -404.06603    
    185100   320.04559     -218737.24      0             -218267.82     -376.34924    
    185200   321.11255     -218735.32      0             -218264.34      17.919614    
    185300   321.45259     -218731.07      0             -218259.59     -671.0822     
    185400   321.68699     -218726.43      0             -218254.6      -1811.849     
    185500   319.35266     -218726.35      0             -218257.95     -679.53995    
    185600   318.0315      -218734.06      0             -218267.6      -182.87797    
    185700   316.13223     -218733.86      0             -218270.19      1389.5714    
    185800   320.76035     -218736.67      0             -218266.2       1162.9746    
    185900   321.28869     -218731.53      0             -218260.29     -312.45068    
    186000   320.89738     -218731.25      0             -218260.59      319.18401    
    186100   320.95348     -218741.05      0             -218270.3       1260.702     
    186200   316.6449      -218739.83      0             -218275.4       920.89745    
    186300   317.92712     -218736.58      0             -218270.27     -222.48144    
    186400   320.87211     -218734.04      0             -218263.41      479.17503    
    186500   320.86318     -218731.8       0             -218261.19     -112.27452    
    186600   321.08671     -218731.96      0             -218261.02      127.61597    
    186700   317.33479     -218734.96      0             -218269.52      89.640474    
    186800   319.87169     -218742.21      0             -218273.05     -199.09462    
    186900   315.93728     -218731.6       0             -218268.21      816.9049     
    187000   319.02021     -218731.09      0             -218263.18     -364.06864    
    187100   321.73085     -218735.38      0             -218263.49      44.415854    
    187200   319.02231     -218732.8       0             -218264.89      356.33454    
    187300   319.78102     -218738.12      0             -218269.09      421.98228    
    187400   314.30566     -218738.15      0             -218277.16     -7.3898049    
    187500   315.3098      -218738.03      0             -218275.56      863.99272    
    187600   317.64414     -218732.82      0             -218266.93     -288.56031    
    187700   318.36752     -218729.88      0             -218262.93     -515.55235    
    187800   319.52507     -218730.61      0             -218261.95      102.28514    
    187900   317.95605     -218732.22      0             -218265.87     -549.04419    
    188000   320.05348     -218741.47      0             -218272.04     -177.91021    
    188100   317.37548     -218736.48      0             -218270.98      757.33997    
    188200   322.12156     -218732.54      0             -218260.08      2.5269803    
    188300   320.55385     -218728.54      0             -218258.38     -295.63935    
    188400   320.07399     -218731.55      0             -218262.09     -244.73447    
    188500   321.81415     -218739.55      0             -218267.54     -585.63277    
    188600   318.85506     -218737.83      0             -218270.16     -892.56142    
    188700   317.84966     -218731.91      0             -218265.71      849.70001    
    188800   325.28455     -218732.52      0             -218255.42      1186.1669    
    188900   321.93819     -218730.7       0             -218258.51      583.41104    
    189000   319.76971     -218734.9       0             -218265.89      470.02288    
    189100   315.62122     -218731.62      0             -218268.7       85.987922    
    189200   319.64197     -218736.01      0             -218267.18      826.28293    
    189300   324.36934     -218736.44      0             -218260.68      681.80565    
    189400   325.53664     -218731.68      0             -218254.21      489.25345    
    189500   324.56705     -218734.29      0             -218258.24     -719.45729    
    189600   319.20762     -218731.55      0             -218263.37      445.50239    
    189700   319.06689     -218732.94      0             -218264.96     -327.63732    
    189800   318.92582     -218733.02      0             -218265.25     -76.412537    
    189900   319.34043     -218733.43      0             -218265.04      124.09942    
    190000   319.09301     -218733.56      0             -218265.54     -79.908031    
    190100   319.02381     -218732.74      0             -218264.82      1355.8441    
    190200   318.28498     -218730.68      0             -218263.84     -1227.0451    
    190300   318.5775      -218728.7       0             -218261.44     -12.041759    
    190400   323.04722     -218735.49      0             -218261.68      504.52591    
    190500   322.52066     -218741.56      0             -218268.52      598.36473    
    190600   315.99229     -218737.1       0             -218273.63      479          
    190700   318.12714     -218737.75      0             -218271.15     -739.85626    
    190800   325.52372     -218739.08      0             -218261.63     -120.76994    
    190900   324.79032     -218736.34      0             -218259.97      112.32074    
    191000   324.10203     -218738.24      0             -218262.88     -699.65643    
    191100   318.71885     -218735.49      0             -218268.02     -1112.9371    
    191200   321.55896     -218741.75      0             -218270.12     -924.85904    
    191300   317.35743     -218734.17      0             -218268.69     -396.58751    
    191400   321.68815     -218731.37      0             -218259.55      410.43735    
    191500   323.52339     -218732.84      0             -218258.33      486.93608    
    191600   318.75335     -218731.9       0             -218264.38      384.60827    
    191700   319.78419     -218738.53      0             -218269.49      460.95861    
    191800   321.10071     -218740.37      0             -218269.41      590.77021    
    191900   318.83554     -218735.01      0             -218267.37      241.68965    
    192000   321.8852      -218736.86      0             -218264.74     -90.389949    
    192100   319.5947      -218732.97      0             -218264.21      353.16977    
    192200   320.37218     -218736.21      0             -218266.31      1104.7486    
    192300   318.63871     -218741.13      0             -218273.78      399.2645     
    192400   319.21804     -218743.85      0             -218275.65      1091.1109    
    192500   318.74973     -218735.87      0             -218268.36      60.81226     
    192600   321.51252     -218734.69      0             -218263.13      250.75105    
    192700   316.39285     -218726.32      0             -218262.26     -1291.3862    
    192800   321.90019     -218733.86      0             -218261.73     -116.32112    
    192900   317.40539     -218731.75      0             -218266.21     -861.24234    
    193000   319.46343     -218741.55      0             -218272.99      465.01315    
    193100   317.90628     -218738.75      0             -218272.47     -1030.3199    
    193200   318.98142     -218732.49      0             -218264.64     -565.35259    
    193300   319.39442     -218731.09      0             -218262.63      618.55106    
    193400   319.50253     -218732.11      0             -218263.49     -83.063789    
    193500   315.94639     -218730.58      0             -218267.18      485.3212     
    193600   318.61036     -218739.95      0             -218272.64      162.06733    
    193700   316.85664     -218742.61      0             -218277.87     -941.34255    
    193800   317.01727     -218736.07      0             -218271.09     -99.586438    
    193900   319.97986     -218732.56      0             -218263.24      994.84156    
    194000   318.80052     -218729.81      0             -218262.22     -320.89438    
    194100   322.52379     -218736.86      0             -218263.81      286.44238    
    194200   320.71421     -218738.95      0             -218268.55      224.07485    
    194300   315.35241     -218736.09      0             -218273.56     -785.89147    
    194400   316.35956     -218733.62      0             -218269.61      375.85339    
    194500   322.40012     -218733.71      0             -218260.84      339.08562    
    194600   320.55203     -218729.75      0             -218259.59      182.2044     
    194700   322.47228     -218736.19      0             -218263.22      117.95997    
    194800   319.09924     -218737.75      0             -218269.72      1596.3907    
    194900   320.95891     -218740.95      0             -218270.2       1356.8716    
    195000   319.03383     -218735.5       0             -218267.57      610.92339    
    195100   318.16104     -218732.88      0             -218266.23      433.11566    
    195200   319.65651     -218733.98      0             -218265.14      655.23053    
    195300   319.29878     -218732.65      0             -218264.33      684.10672    
    195400   321.51479     -218734.81      0             -218263.24      580.64548    
    195500   321.24639     -218734.35      0             -218263.17      598.4582     
    195600   321.98578     -218737.94      0             -218265.67     -114.23037    
    195700   314.73657     -218730.8       0             -218269.17     -1348.2252    
    195800   318.62058     -218736.14      0             -218268.82     -1023.9222    
    195900   318.87149     -218729.05      0             -218261.35     -596.25641    
    196000   325.50107     -218734.93      0             -218257.51      63.955403    
    196100   319.40318     -218730.21      0             -218261.73      257.73793    
    196200   320.74433     -218735.97      0             -218265.53      207.11227    
    196300   320.17353     -218737.37      0             -218267.77      1053.568     
    196400   318.10585     -218733.63      0             -218267.06      529.81957    
    196500   319.39303     -218733.5       0             -218265.04      1031.1711    
    196600   321.06676     -218733.53      0             -218262.61      991.86592    
    196700   317.96716     -218728.15      0             -218261.79     -149.17726    
    196800   320.22252     -218736.57      0             -218266.9       306.39082    
    196900   318.87308     -218739.01      0             -218271.32     -343.84833    
    197000   317.04085     -218734.94      0             -218269.93     -144.42258    
    197100   316.15254     -218724.88      0             -218261.17     -497.88462    
    197200   324.6181      -218735.1       0             -218258.98     -806.90556    
    197300   322.42595     -218735.06      0             -218262.15      718.83257    
    197400   319.83263     -218735.92      0             -218266.82     -183.09952    
    197500   317.1999      -218732.89      0             -218267.65     -877.30048    
    197600   323.43459     -218741.03      0             -218266.65      111.91251    
    197700   319.61417     -218734.82      0             -218266.03      464.42548    
    197800   318.61142     -218732.09      0             -218264.77      202.82871    
    197900   321.58249     -218734.05      0             -218262.38     -65.655466    
    198000   321.01483     -218729.04      0             -218258.2      -497.38724    
    198100   324.08774     -218732.49      0             -218257.14     -525.27178    
    198200   317.56725     -218730.49      0             -218264.71      420.69411    
    198300   316.93438     -218734.31      0             -218269.46     -126.96033    
    198400   320.69087     -218739.73      0             -218269.37     -771.98201    
    198500   323.44766     -218737.16      0             -218262.75     -603.93826    
    198600   322.26172     -218728.5       0             -218255.84      33.341373    
    198700   322.87494     -218731.26      0             -218257.69      739.58595    
    198800   322.23452     -218734.88      0             -218262.25     -268.88833    
    198900   322.28216     -218739.54      0             -218266.84      145.93699    
    199000   315.71945     -218733.58      0             -218270.51     -187.88758    
    199100   319.19134     -218735.75      0             -218267.59     -178.62857    
    199200   320.08251     -218725.81      0             -218256.34      1085.7025    
    199300   324.06695     -218732.7       0             -218257.38      1211.3284    
    199400   317.82378     -218730.94      0             -218264.79      544.7432     
    199500   317.07869     -218732.91      0             -218267.85      442.34261    
    199600   321.0746      -218737.94      0             -218267.02     -49.722157    
    199700   321.30848     -218731.93      0             -218260.66     -217.36269    
    199800   328.83806     -218735.08      0             -218252.77      198.34202    
    199900   323.14019     -218730.58      0             -218256.63     -214.12011    
    200000   321.20628     -218733.17      0             -218262.06      30.22274     
    200100   320.58871     -218735.92      0             -218265.71     -449.16758    
    200200   318.15788     -218732.73      0             -218266.08     -217.60099    
    200300   321.35914     -218735.18      0             -218263.84     -520.96591    
    200400   322.77166     -218731.29      0             -218257.88      697.54715    
    200500   321.1272      -218725.98      0             -218254.98     -2.2356868    
    200600   322.25072     -218734.82      0             -218262.17      124.1558     
    200700   320.21064     -218737.89      0             -218268.23     -358.4226     
    200800   318.96112     -218736.13      0             -218268.31      127.64582    
    200900   322.47695     -218737.26      0             -218264.28     -372.0476     
    201000   322.45167     -218730.54      0             -218257.59      273.74448    
    201100   320.38254     -218726.36      0             -218256.45      98.49459     
    201200   318.31925     -218731.24      0             -218264.36     -554.43917    
    201300   320.85336     -218741.41      0             -218270.81     -34.584113    
    201400   320.25937     -218740.55      0             -218270.82     -92.284707    
    201500   319.42887     -218732.59      0             -218264.08     -456.01058    
    201600   322.33621     -218732.82      0             -218260.04     -828.23423    
    201700   320.86378     -218731.88      0             -218261.26     -9.3203245    
    201800   320.08685     -218733.77      0             -218264.3       158.57792    
    201900   322.10947     -218738.08      0             -218265.64      1508.5365    
    202000   319.46368     -218735.14      0             -218266.57      63.980573    
    202100   320.52455     -218734.53      0             -218264.41     -565.86816    
    202200   321.06318     -218725.59      0             -218254.69     -27.9792      
    202300   324.77544     -218728.99      0             -218252.64     -652.92644    
    202400   324.38754     -218735.59      0             -218259.81     -1154.6251    
    202500   318.33654     -218731.27      0             -218264.36     -1011.8669    
    202600   316.25483     -218730         0             -218266.14     -37.522807    
    202700   322.23791     -218740.54      0             -218267.91     -72.266828    
    202800   319.56369     -218737.04      0             -218268.34     -497.01166    
    202900   320.32327     -218734.27      0             -218264.45     -165.46867    
    203000   323.73679     -218733.11      0             -218258.28     -184.83475    
    203100   322.29348     -218732.91      0             -218260.2       405.23015    
    203200   317.38287     -218733.19      0             -218267.67     -38.511703    
    203300   316.50758     -218734.02      0             -218269.8       127.95457    
    203400   321.37777     -218739.94      0             -218268.57      262.48308    
    203500   318.00826     -218733.16      0             -218266.73      356.70079    
    203600   321.38629     -218735.36      0             -218263.98      1237.8527    
    203700   324.00558     -218735.57      0             -218260.34      518.54909    
    203800   325.76729     -218731.08      0             -218253.27      308.88416    
    203900   322.4287      -218728.59      0             -218255.68      931.99526    
    204000   320.09357     -218733.12      0             -218263.63     -701.10969    
    204100   319.38104     -218734.1       0             -218265.66     -1131.4044    
    204200   317.95804     -218732.31      0             -218265.96     -1135.2966    
    204300   322.20846     -218735.8       0             -218263.21     -402.35767    
    204400   319.45631     -218725.04      0             -218256.49     -218.23427    
    204500   322.69803     -218727.63      0             -218254.32     -706.86724    
    204600   322.63711     -218737.29      0             -218264.07      1230.4322    
    204700   321.48073     -218739.35      0             -218267.83      925.83749    
    204800   320.20519     -218737.16      0             -218267.51      608.56668    
    204900   320.18959     -218733.34      0             -218263.71      804.84311    
    205000   321.74685     -218728.75      0             -218256.83     -341.68894    
    205100   321.62775     -218730.27      0             -218258.54      556.27512    
    205200   320.83408     -218739.79      0             -218269.22     -349.16643    
    205300   317.36816     -218734.77      0             -218269.28     -331.59111    
    205400   320.91018     -218735.86      0             -218265.18     -511.84485    
    205500   321.82122     -218730.56      0             -218258.54      185.77644    
    205600   321.65887     -218731.41      0             -218259.62      11.445388    
    205700   321.58774     -218736.03      0             -218264.35     -471.50997    
    205800   319.08433     -218734.07      0             -218266.06     -315.69711    
    205900   321.2993      -218737.3       0             -218266.05     -34.585372    
    206000   320.73745     -218736.94      0             -218266.51     -419.70368    
    206100   316.91253     -218731.75      0             -218266.93      290.3187     
    206200   322.63914     -218737.87      0             -218264.65      1022.6336    
    206300   323.6852      -218736.71      0             -218261.95      1820.3463    
    206400   322.62157     -218735.69      0             -218262.5       514.84344    
    206500   321.89527     -218737.99      0             -218265.86      1067.6302    
    206600   318.81045     -218740.29      0             -218272.68      1008.0743    
    206700   316.86949     -218738.36      0             -218273.61      446.17336    
    206800   321.14064     -218736.98      0             -218265.96      1073.534     
    206900   320.68423     -218734.06      0             -218263.7      -707.5577     
    207000   317.76934     -218730.36      0             -218264.28     -501.61946    
    207100   321.87248     -218737.22      0             -218265.12     -682.72238    
    207200   322.01997     -218739.2       0             -218266.89      172.26398    
    207300   317.1012      -218737.4       0             -218272.31      467.33279    
    207400   317.94819     -218738.4       0             -218272.06      345.87806    
    207500   323.41483     -218738.27      0             -218263.91      1073.7108    
    207600   320.8021      -218731.67      0             -218261.14     -328.36034    
    207700   322.46799     -218735.45      0             -218262.48     -354.39213    
    207800   317.98445     -218733.56      0             -218267.17      651.53681    
    207900   317.11224     -218733.7       0             -218268.59     -335.29331    
    208000   322.52472     -218740.41      0             -218267.36     -844.78019    
    208100   319.30679     -218734.24      0             -218265.91     -220.11745    
    208200   323.20826     -218734.11      0             -218260.06     -937.55361    
    208300   320.82059     -218728.86      0             -218258.31     -139.33201    
    208400   320.80611     -218735.42      0             -218264.89     -1325.1422    
    208500   319.92214     -218740.59      0             -218271.35     -1720.7425    
    208600   315.83067     -218734.3       0             -218271.07     -851.03112    
    208700   320.21656     -218733.37      0             -218263.7      -505.99752    
    208800   321.84656     -218732.67      0             -218260.62     -1986.7985    
    208900   321.34935     -218733.99      0             -218262.66     -887.30765    
    209000   324.16638     -218740.8       0             -218265.34      238.15866    
    209100   318.38538     -218734.79      0             -218267.81      34.075285    
    209200   319.56337     -218739.36      0             -218270.65      430.6963     
    209300   320.57771     -218742.86      0             -218272.66      382.6772     
    209400   319.08036     -218737.64      0             -218269.64      475.24115    
    209500   322.32927     -218735.49      0             -218262.72     -134.18317    
    209600   323.335       -218733.26      0             -218259.02      318.29411    
    209700   322.50529     -218735.76      0             -218262.74     -227.65529    
    209800   320.82905     -218741.05      0             -218270.49     -828.83153    
    209900   315.35395     -218734.93      0             -218272.39     -280.17917    
    210000   318.50048     -218736.82      0             -218269.67      518.18327    
    210100   320.73291     -218735.43      0             -218265.01      418.5104     
    210200   320.39528     -218731.43      0             -218261.5      -692.7015     
    210300   320.47777     -218731.29      0             -218261.24      384.8534     
    210400   318.77431     -218737.65      0             -218270.1      -158.35838    
    210500   313.58977     -218734.28      0             -218274.34      1060.6334    
    210600   319.73119     -218738.83      0             -218269.88      181.32214    
    210700   322.03168     -218736.56      0             -218264.23      707.06363    
    210800   321.79722     -218734.67      0             -218262.68     -94.597148    
    210900   321.46012     -218735.15      0             -218263.66     -1018.4789    
    211000   317.30089     -218730.93      0             -218265.54     -248.57126    
    211100   316.435       -218731.76      0             -218267.64     -911.91305    
    211200   315.57227     -218738.44      0             -218275.59     -871.64759    
    211300   317.15063     -218739.86      0             -218274.69     -457.98593    
    211400   319.76672     -218735.88      0             -218266.88      456.20098    
    211500   316.85128     -218728.8       0             -218264.07     -768.47043    
    211600   318.09053     -218729.45      0             -218262.91      971.13497    
    211700   321.50083     -218735.65      0             -218264.1       616.20603    
    211800   319.21357     -218741.16      0             -218272.96      595.39433    
    211900   318.76848     -218743.18      0             -218275.63      644.66745    
    212000   320.06707     -218739.82      0             -218270.38      651.18743    
    212100   320.47581     -218733.87      0             -218263.82      883.57839    
    212200   321.93089     -218735.95      0             -218263.77      218.50338    
    212300   320.36487     -218735.22      0             -218265.34      3.520252     
    212400   319.64113     -218736.59      0             -218267.77     -439.51964    
    212500   317.96505     -218739.08      0             -218272.72     -293.643      
    212600   319.60008     -218742.91      0             -218274.14     -55.774465    
    212700   321.59463     -218738.58      0             -218266.89     -939.69152    
    212800   321.55168     -218732.6       0             -218260.98      226.58049    
    212900   320.77434     -218733.23      0             -218262.75      1223.1212    
    213000   318.89826     -218735.94      0             -218268.2       24.529491    
    213100   315.16231     -218733.92      0             -218271.67      731.17072    
    213200   320.60564     -218737.92      0             -218267.68      220.10994    
    213300   321.66172     -218728.61      0             -218256.82     -15.407656    
    213400   325.1239      -218735.35      0             -218258.48      738.77861    
    213500   320.57534     -218736.15      0             -218265.95      697.05217    
    213600   315.92354     -218733.04      0             -218269.67     -152.06136    
    213700   319.11339     -218736.45      0             -218268.41     -473.81829    
    213800   323.36724     -218737.07      0             -218262.78      283.59561    
    213900   323.52164     -218729.24      0             -218254.72     -296.50363    
    214000   322.76071     -218729.31      0             -218255.91     -261.07607    
    214100   324.00378     -218735.22      0             -218260        -559.97507    
    214200   322.60197     -218737.84      0             -218264.68      482.87488    
    214300   317.71305     -218734.87      0             -218268.87      17.765203    
    214400   317.08009     -218735.42      0             -218270.35      696.8306     
    214500   320.45519     -218734.59      0             -218264.58      946.96049    
    214600   322.31221     -218731.16      0             -218258.42     -186.44714    
    214700   321.84827     -218731.94      0             -218259.88      574.82909    
    214800   318.51748     -218735.13      0             -218267.96      947.27106    
    214900   321.86053     -218742.15      0             -218270.07      554.81337    
    215000   320.57216     -218738.72      0             -218268.53     -220.13399    
    215100   319.78324     -218733.76      0             -218264.73     -1374.0172    
    215200   320.94583     -218729.79      0             -218259.05     -236.59807    
    215300   323.45081     -218727.83      0             -218253.42     -382.43235    
    215400   322.5156      -218727.28      0             -218254.24      100.70451    
    215500   320.22263     -218733.76      0             -218264.08      582.04491    
    215600   318.51164     -218735.46      0             -218268.3      -876.09266    
    215700   316.71463     -218733.53      0             -218269        -673.45593    
    215800   322.08745     -218736.8       0             -218264.39      931.48485    
    215900   324.80782     -218734.14      0             -218257.74      1146.2335    
    216000   320.92909     -218728.05      0             -218257.33      254.92849    
    216100   318.55998     -218736.4       0             -218269.16      24.124036    
    216200   319.54765     -218739.58      0             -218270.9       769.45949    
    216300   318.21192     -218735.44      0             -218268.71      25.438726    
    216400   320.87687     -218732.71      0             -218262.07      656.23035    
    216500   322.53289     -218731.78      0             -218258.72     -172.75648    
    216600   320.22639     -218732.52      0             -218262.84      473.69871    
    216700   320.2344      -218738.11      0             -218268.42      78.016585    
    216800   318.18833     -218735.43      0             -218268.74     -330.88256    
    216900   319.98521     -218735.93      0             -218266.6      -78.196635    
    217000   321.32152     -218733.91      0             -218262.63     -322.22013    
    217100   324.38203     -218733.85      0             -218258.07     -789.59018    
    217200   320.50103     -218730.36      0             -218260.28      691.31508    
    217300   319.35514     -218738.05      0             -218269.65      542.07887    
    217400   318.70267     -218737.4       0             -218269.95     -15.450066    
    217500   316.65554     -218730.45      0             -218266.01     -380.70694    
    217600   320.07579     -218728.68      0             -218259.22     -144.73047    
    217700   324.38682     -218734.7       0             -218258.92      789.60355    
    217800   319.10579     -218730.28      0             -218262.24      431.13904    
    217900   320.13927     -218733.81      0             -218264.25      1551.1183    
    218000   319.76979     -218736.67      0             -218267.66      440.00552    
    218100   319.0109      -218738.07      0             -218270.18     -110.9214     
    218200   318.88619     -218735.85      0             -218268.14     -360.44722    
    218300   318.50988     -218728.04      0             -218260.88      119.84812    
    218400   322.53552     -218730.76      0             -218257.69     -193.41858    
    218500   323.3933      -218736.1       0             -218261.77     -285.78125    
    218600   319.23776     -218738.23      0             -218270        -86.645261    
    218700   318.10878     -218736.34      0             -218269.77      199.0181     
    218800   318.50014     -218734.7       0             -218267.55      275.79365    
    218900   319.95046     -218730.89      0             -218261.61      390.68262    
    219000   323.41083     -218732.04      0             -218257.69     -50.275296    
    219100   321.63998     -218737.37      0             -218265.62      200.07537    
    219200   318.55895     -218740.22      0             -218272.98      45.946909    
    219300   321.39482     -218742.26      0             -218270.87      296.95534    
    219400   320.92563     -218735.17      0             -218264.46      357.65133    
    219500   323.71211     -218735.1       0             -218260.31     -1029.5994    
    219600   317.68243     -218728.06      0             -218262.11     -909.92215    
    219700   317.6672      -218737.86      0             -218271.94     -692.99805    
    219800   315.7134      -218735.88      0             -218272.82     -1497.3823    
    219900   320.33064     -218737.92      0             -218268.08     -460.33302    
    220000   320.06652     -218732.87      0             -218263.43     -692.18817    
    220100   321.90889     -218733.85      0             -218261.7      -1321.2013    
    220200   322.46447     -218736.1       0             -218263.13      1378.1553    
    220300   315.90223     -218737.44      0             -218274.1       1066.6152    
    220400   317.40345     -218740.85      0             -218275.31      378.87742    
    220500   322.40138     -218741.1       0             -218268.23     -406.67709    
    220600   322.26906     -218736.68      0             -218264         42.75292     
    220700   323.40839     -218737.43      0             -218263.08      359.07117    
    220800   321.43997     -218737.89      0             -218266.43      369.23119    
    220900   315.00498     -218737.59      0             -218275.56     -409.55361    
    221000   316.669       -218739.07      0             -218274.61     -217.34354    
    221100   320.47814     -218738.77      0             -218268.72      1143.5009    
    221200   321.35421     -218737.26      0             -218265.92      410.97988    
    221300   318.51972     -218732.17      0             -218264.99     -20.747265    
    221400   322.0861      -218736.85      0             -218264.45      476.03091    
    221500   324.30584     -218740.18      0             -218264.51      751.07783    
    221600   317.19574     -218733.51      0             -218268.28     -99.245548    
    221700   317.29829     -218736.41      0             -218271.02     -240.371      
    221800   320.89183     -218740.85      0             -218270.19     -738.6876     
    221900   320.18696     -218731.89      0             -218262.27     -146.58111    
    222000   319.73267     -218728.98      0             -218260.03     -172.9965     
    222100   321.2007      -218734.76      0             -218263.65      246.5144     
    222200   320.53448     -218737.63      0             -218267.49      805.2134     
    222300   319.00153     -218736.72      0             -218268.84      268.60246    
    222400   318.89414     -218735.94      0             -218268.21     -225.00135    
    222500   319.77145     -218736.19      0             -218267.18      43.723265    
    222600   323.60629     -218739.83      0             -218265.2       633.88061    
    222700   321.48023     -218735.09      0             -218263.57     -445.99985    
    222800   321.08293     -218732.5       0             -218261.56      119.215      
    222900   322.17973     -218737.23      0             -218264.68      340.67468    
    223000   320.77146     -218741.38      0             -218270.9       811.00436    
    223100   317.1079      -218738.07      0             -218272.96     -21.535363    
    223200   323.00758     -218738.54      0             -218264.78     -197.36794    
    223300   324.34701     -218735.95      0             -218260.23      19.057211    
    223400   322.6635      -218736         0             -218262.74      307.69358    
    223500   318.56931     -218734.57      0             -218267.32     -250.05821    
    223600   316.80178     -218735.94      0             -218271.28     -494.28326    
    223700   321.26528     -218738.81      0             -218267.61     -350.25511    
    223800   320.57687     -218728.38      0             -218258.19     -289.94009    
    223900   319.78323     -218727.33      0             -218258.3       1223.4239    
    224000   318.35238     -218732.83      0             -218265.89      184.38935    
    224100   317.98795     -218734.87      0             -218268.47      1191.5603    
    224200   320.37413     -218737.85      0             -218267.95      738.48946    
    224300   319.39463     -218731.98      0             -218263.52     -121.72635    
    224400   324.42655     -218731.41      0             -218255.57      791.76655    
    224500   327.3089      -218730.94      0             -218250.87     -330.82089    
    224600   323.93581     -218736.64      0             -218261.52      303.70209    
    224700   321.24705     -218739.08      0             -218267.9      -513.18933    
    224800   318.89633     -218737.75      0             -218270.02     -546.253      
    224900   319.9833      -218737.43      0             -218268.11     -269.72152    
    225000   317.6987      -218728.68      0             -218262.71      1210.0536    
    225100   322.77874     -218732.81      0             -218259.38      370.31948    
    225200   320.64306     -218732.32      0             -218262.03      289.32826    
    225300   316.89621     -218736.6       0             -218271.8       168.70316    
    225400   320.47886     -218741.77      0             -218271.72     -113.66986    
    225500   320.01574     -218735.25      0             -218265.88     -912.03153    
    225600   319.80595     -218730.92      0             -218261.86     -21.647501    
    225700   322.50741     -218735.93      0             -218262.91      464.70074    
    225800   320.55946     -218734.55      0             -218264.38     -69.860491    
    225900   318.51081     -218732.42      0             -218265.26     -368.78056    
    226000   319.58115     -218734.2       0             -218265.47      89.641917    
    226100   321.19443     -218737.3       0             -218266.2      -948.31887    
    226200   318.92938     -218734.74      0             -218266.96     -339.46777    
    226300   320.07758     -218736.17      0             -218266.71     -679.91799    
    226400   321.02669     -218737.14      0             -218266.28      192.77555    
    226500   318.94923     -218733.77      0             -218265.97      912.44077    
    226600   317.40583     -218730.44      0             -218264.9       288.56372    
    226700   325.70332     -218738.87      0             -218261.16      664.53052    
    226800   317.83162     -218727.19      0             -218261.02      41.455755    
    226900   317.58387     -218734.27      0             -218268.46     -13.53181     
    227000   316.04608     -218735.81      0             -218272.26      908.58957    
    227100   319.78092     -218738.2       0             -218269.17      111.32387    
    227200   322.52941     -218737.08      0             -218264.02     -506.90925    
    227300   320.85743     -218734.64      0             -218264.04     -843.67203    
    227400   318.12805     -218731.95      0             -218265.35     -60.404147    
    227500   319.9787      -218737.37      0             -218268.05     -901.36598    
    227600   318.28054     -218739.59      0             -218272.76      625.18359    
    227700   315.76707     -218738.29      0             -218275.15     -980.83073    
    227800   318.13681     -218733.47      0             -218266.86      265.20652    
    227900   321.0411      -218732.95      0             -218262.07     -155.32134    
    228000   323.14076     -218735.37      0             -218261.41      901.9199     
    228100   321.31577     -218737.31      0             -218266.03      1575.9827    
    228200   317.96221     -218741.12      0             -218274.76      527.52602    
    228300   318.76057     -218741.98      0             -218274.45      309.5038     
    228400   319.93365     -218738.52      0             -218269.27     -844.91257    
    228500   319.9803      -218735.39      0             -218266.07     -316.86953    
    228600   321.12366     -218736.3       0             -218265.3       500.39251    
    228700   317.62197     -218731.28      0             -218265.42     -611.17045    
    228800   320.76284     -218736         0             -218265.53      242.52456    
    228900   318.48832     -218735.4       0             -218268.27      67.557191    
    229000   324.33226     -218745.89      0             -218270.19      386.55655    
    229100   318.60781     -218737.14      0             -218269.83      817.9998     
    229200   319.3026      -218733.49      0             -218265.16      31.358214    
    229300   324.33818     -218734.35      0             -218258.64     -671.08169    
    229400   320.37323     -218730.59      0             -218260.7      -682.49045    
    229500   320.20049     -218738.92      0             -218269.28      804.16051    
    229600   316.4302      -218736.92      0             -218272.81      600.42059    
    229700   315.7082      -218733.47      0             -218270.42     -171.5077     
    229800   319.94284     -218734.2       0             -218264.94     -303.37597    
    229900   323.05964     -218735.14      0             -218261.31      228.40099    
    230000   318.39549     -218729.17      0             -218262.17      177.50267    
    230100   319.6506      -218741.5       0             -218272.67      139.04845    
    230200   319.77906     -218744.38      0             -218275.36     -348.74939    
    230300   317.56198     -218735.26      0             -218269.48     -319.44213    
    230400   315.3827      -218726.63      0             -218264.05     -1123.3429    
    230500   325.30917     -218738.64      0             -218261.5       254.61811    
    230600   320.29134     -218734.23      0             -218264.45     -278.3092     
    230700   317.51045     -218738.06      0             -218272.37      352.31439    
    230800   315.63851     -218741.6       0             -218278.65      805.62607    
    230900   315.86563     -218737.63      0             -218274.34      1047.2163    
    231000   317.81612     -218734.31      0             -218268.17      1014.1715    
    231100   320.86897     -218735.2       0             -218264.58      890.91825    
    231200   319.15635     -218732.05      0             -218263.93      1199.2935    
    231300   322.73812     -218738.37      0             -218265.01     -524.12049    
    231400   318.25114     -218737.66      0             -218270.88     -1666.6072    
    231500   312.79262     -218733.06      0             -218274.28     -293.8463     
    231600   320.42498     -218738.51      0             -218268.54      579.68506    
    231700   324.34188     -218737.65      0             -218261.93     -212.58411    
    231800   320.57604     -218732.26      0             -218262.07     -1042.6963    
    231900   320.29568     -218734.45      0             -218264.67     -565.86048    
    232000   319.42073     -218737         0             -218268.5       652.10763    
    232100   317.81649     -218735.65      0             -218269.5      -15.723976    
    232200   321.55007     -218739.51      0             -218267.89      67.035109    
    232300   320.81829     -218736.49      0             -218265.94     -616.50736    
    232400   322.25388     -218737.16      0             -218264.51      315.14645    
    232500   316.00848     -218732.72      0             -218269.22      896.02139    
    232600   316.62607     -218740.01      0             -218275.61     -972.6138     
    232700   320.55529     -218743.35      0             -218273.18      487.73589    
    232800   323.34496     -218739.34      0             -218265.09      383.32177    
    232900   317.58764     -218728.87      0             -218263.06      321.43002    
    233000   320.51362     -218734.49      0             -218264.39     -285.76352    
    233100   322.61434     -218740.14      0             -218266.95     -391.65029    
    233200   316.72264     -218739.75      0             -218275.21      574.88232    
    233300   313.12377     -218738.18      0             -218278.91      276.47166    
    233400   320.17874     -218740.51      0             -218270.9      -22.190335    
    233500   320.04537     -218737.28      0             -218267.87     -464.98275    
    233600   317.75038     -218731.59      0             -218265.54      1342.7708    
    233700   318.93657     -218732.01      0             -218264.22      377.89143    
    233800   319.41842     -218733.98      0             -218265.49      502.32177    
    233900   319.08733     -218737.09      0             -218269.08      348.29646    
    234000   320.0438      -218742.7       0             -218273.29      669.52226    
    234100   318.08327     -218739.33      0             -218272.79      778.96633    
    234200   316.887       -218728.69      0             -218263.9       887.07989    
    234300   323.15958     -218734.27      0             -218260.29      172.98499    
    234400   322.30294     -218734.87      0             -218262.14      29.641049    
    234500   318.3509      -218735.58      0             -218268.65      71.908687    
    234600   318.49136     -218738.91      0             -218271.77     -401.39237    
    234700   317.28434     -218735.59      0             -218270.22      405.77417    
    234800   316.36982     -218732.39      0             -218268.36     -423.58877    
    234900   318.85331     -218734.16      0             -218266.5       1003.953     
    235000   321.52465     -218732.09      0             -218260.5       435.76329    
    235100   325.12378     -218731.84      0             -218254.98      76.071126    
    235200   322.27704     -218730.5       0             -218257.81      313.78995    
    235300   320.50452     -218738.11      0             -218268.02      393.5747     
    235400   318.24775     -218737.17      0             -218270.39     -427.79682    
    235500   320.68173     -218739.79      0             -218269.44     -492.96564    
    235600   317.29931     -218729.85      0             -218264.46      569.42277    
    235700   322.65885     -218731.19      0             -218257.94      54.831333    
    235800   323.2759      -218734.42      0             -218260.27     -241.17183    
    235900   320.14764     -218736.5       0             -218266.93      1570.7737    
    236000   321.80042     -218740.65      0             -218268.66      868.48723    
    236100   321.04681     -218739.04      0             -218268.16      609.02044    
    236200   320.82152     -218736.19      0             -218265.63      236.52314    
    236300   321.55881     -218731.48      0             -218259.85     -19.455543    
    236400   319.58433     -218725.56      0             -218256.82     -759.15147    
    236500   317.47091     -218730.69      0             -218265.05     -1541.0629    
    236600   319.81719     -218740.02      0             -218270.94      483.1197     
    236700   318.9128      -218737.98      0             -218270.23     -530.91306    
    236800   322.12158     -218738.73      0             -218266.27     -227.19817    
    236900   321.47656     -218730.13      0             -218258.61      51.389507    
    237000   322.14119     -218729.63      0             -218257.14     -653.74518    
    237100   321.22436     -218740.31      0             -218269.17      101.38584    
    237200   316.96803     -218735.92      0             -218271.01     -485.1123     
    237300   318.52784     -218734.78      0             -218267.59     -834.30134    
    237400   322.35858     -218734.87      0             -218262.06      795.56031    
    237500   322.02824     -218732.31      0             -218259.99      429.9796     
    237600   321.42853     -218738.61      0             -218267.16     -662.86852    
    237700   316.94144     -218736.56      0             -218271.69     -166.77091    
    237800   317.37244     -218736.02      0             -218270.53     -146.47325    
    237900   320.37738     -218737.11      0             -218267.21     -359.12593    
    238000   320.374       -218733.37      0             -218263.47     -163.50674    
    238100   323.39655     -218733.5       0             -218259.17      793.93947    
    238200   326.86591     -218732.58      0             -218253.16      88.362377    
    238300   319.69706     -218726.58      0             -218257.67     -130.76881    
    238400   321.03522     -218737.32      0             -218266.46      43.828825    
    238500   320.82246     -218740         0             -218269.45      990.10872    
    238600   316.72578     -218733.09      0             -218268.54     -200.15235    
    238700   319.01892     -218733.02      0             -218265.11     -264.5812     
    238800   323.04098     -218731.07      0             -218257.26     -504.25775    
    238900   324.20082     -218732.69      0             -218257.18     -158.82383    
    239000   315.79301     -218727.56      0             -218264.38     -28.566599    
    239100   325.12378     -218744.02      0             -218267.16     -193.23315    
    239200   319.54644     -218736.31      0             -218267.63      680.73485    
    239300   319.19775     -218733.13      0             -218264.96      298.81556    
    239400   323.65454     -218734.69      0             -218259.98      343.27042    
    239500   322.09077     -218727.68      0             -218255.26     -567.96426    
    239600   321.22421     -218730.67      0             -218259.52      121.62518    
    239700   321.7882      -218740.52      0             -218268.54     -450.77432    
    239800   318.90528     -218737.4       0             -218269.66      250.79805    
    239900   322.38914     -218739.39      0             -218266.54     -251.73459    
    240000   318.43917     -218728.65      0             -218261.59     -460.61376    
    240100   321.49698     -218727.14      0             -218255.59      1333.8938    
    240200   323.21676     -218729.6       0             -218255.53      414.47826    
    240300   324.08906     -218741.86      0             -218266.52      351.88002    
    240400   318.23594     -218737.88      0             -218271.12      690.18652    
    240500   320.13682     -218739.43      0             -218269.88      401.71144    
    240600   322.00675     -218735.39      0             -218263.1      -1001.2598    
    240700   319.82989     -218730.71      0             -218261.61      621.34205    
    240800   319.10672     -218732.89      0             -218264.85      78.938794    
    240900   316.22938     -218739.26      0             -218275.44     -512.45665    
    241000   317.52713     -218742.32      0             -218276.6      -234.05272    
    241100   317.21747     -218736.93      0             -218271.66      63.916593    
    241200   318.3919      -218733.63      0             -218266.64      719.04587    
    241300   319.15868     -218732.29      0             -218264.18      753.35762    
    241400   321.46798     -218734.26      0             -218262.76      464.20823    
    241500   319.4287      -218732.66      0             -218264.15     -423.28296    
    241600   318.35559     -218738.21      0             -218271.27     -1002.3389    
    241700   318.17894     -218741.24      0             -218274.56     -727.90492    
    241800   319.83634     -218737.8       0             -218268.7      -65.79291     
    241900   318.39849     -218730.38      0             -218263.38      358.46162    
    242000   323.55967     -218737.32      0             -218262.75     -29.466175    
    242100   319.21892     -218734.08      0             -218265.87     -819.9648     
    242200   316.945       -218737.54      0             -218272.68      66.102369    
    242300   314.21161     -218740.55      0             -218279.69      386.39702    
    242400   318.95021     -218743.3       0             -218275.49     -494.872      
    242500   316.46169     -218735.41      0             -218271.25      715.53019    
    242600   322.16935     -218738.42      0             -218265.89      1164.1893    
    242700   322.24831     -218734.6       0             -218261.95      58.778865    
    242800   321.87872     -218733.51      0             -218261.4      -799.97106    
    242900   316.9234      -218735.1       0             -218270.27     -279.74118    
    243000   319.33082     -218744.04      0             -218275.67      782.75337    
    243100   318.96801     -218739.9       0             -218272.06     -148.40803    
    243200   320.46129     -218735.77      0             -218265.75     -1053.4813    
    243300   321.37357     -218734.85      0             -218263.49     -852.71357    
    243400   317.30172     -218730.29      0             -218264.9      -205.99899    
    243500   322.07736     -218738.76      0             -218266.37     -25.512597    
    243600   315.53557     -218737.94      0             -218275.14     -1458.7364    
    243700   315.01153     -218740.13      0             -218278.1       180.59564    
    243800   316.37106     -218735.05      0             -218271.03      663.25984    
    243900   319.23482     -218735.76      0             -218267.54     -44.907801    
    244000   323.21851     -218738.25      0             -218264.18      1130.8764    
    244100   322.52067     -218735.86      0             -218262.81      768.57115    
    244200   320.82432     -218735.61      0             -218265.05      765.92092    
    244300   319.05754     -218741.16      0             -218273.19     -193.9235     
    244400   317.7901      -218740.33      0             -218274.23     -1431.537     
    244500   316.73348     -218731.98      0             -218267.42     -843.60726    
    244600   323.45207     -218737.44      0             -218263.03      107.90352    
    244700   322.24156     -218736.3       0             -218263.67     -258.85083    
    244800   322.01467     -218738.87      0             -218266.57     -745.5241     
    244900   316.68949     -218737.17      0             -218272.68     -729.17313    
    245000   314.30776     -218736.92      0             -218275.92     -442.65554    
    245100   319.49879     -218737.89      0             -218269.28     -618.50206    
    245200   320.25228     -218731.22      0             -218261.5       646.6936     
    245300   323.41207     -218734.9       0             -218260.55     -179.7919     
    245400   324.29732     -218741.28      0             -218265.63      231.03816    
    245500   317.40953     -218737.8       0             -218272.26     -1093.6685    
    245600   320.15707     -218740.91      0             -218271.33     -408.03789    
    245700   322.97512     -218740.66      0             -218266.95      241.27232    
    245800   320.25298     -218734.05      0             -218264.33      270.40053    
    245900   319.26187     -218733.02      0             -218264.75      190.58909    
    246000   318.66128     -218733.65      0             -218266.26     -721.97851    
    246100   318.2153      -218735.52      0             -218268.79     -125.65838    
    246200   315.93873     -218735.1       0             -218271.7       1161.1908    
    246300   317.65532     -218739.94      0             -218274.03      278.26632    
    246400   318.22102     -218736.74      0             -218270        -586.80893    
    246500   320.42245     -218732.84      0             -218262.87     -450.7365     
    246600   326.19524     -218740.71      0             -218262.28      440.58285    
    246700   318.97847     -218735.42      0             -218267.57      838.956      
    246800   321.31514     -218746.05      0             -218274.77      187.15625    
    246900   315.82448     -218737.35      0             -218274.13      8.2514278    
    247000   317.30892     -218736.58      0             -218271.17      170.66439    
    247100   322.20784     -218738.38      0             -218265.79     -157.45357    
    247200   322.52985     -218735.97      0             -218262.91     -558.03862    
    247300   321.8324      -218736.85      0             -218264.81     -671.51231    
    247400   319.1809      -218742.45      0             -218274.3      -531.20931    
    247500   320.45001     -218746.3       0             -218276.29     -664.06514    
    247600   320.82619     -218741.76      0             -218271.2       15.161917    
    247700   320.47889     -218736.62      0             -218266.57     -365.74436    
    247800   322.46905     -218738.3       0             -218265.32     -786.30973    
    247900   319.3832      -218734.5       0             -218266.06      1.1760112    
    248000   318.48102     -218736.92      0             -218269.8      -605.887      
    248100   316.22494     -218741.24      0             -218277.42     -163.47201    
    248200   320.21958     -218746.69      0             -218277.01      167.13805    
    248300   321.64904     -218739.45      0             -218267.69     -573.32684    
    248400   318.81122     -218733.61      0             -218266        -570.48031    
    248500   320.81926     -218735.85      0             -218265.3      -913.42619    
    248600   321.43645     -218738.61      0             -218267.15     -879.27612    
    248700   318.58055     -218738.69      0             -218271.42      434.73755    
    248800   317.65966     -218741.2       0             -218275.29      125.86477    
    248900   318.96954     -218740.65      0             -218272.81      1113.2472    
    249000   323.4142      -218738.23      0             -218263.87      603.6009     
    249100   319.64292     -218732.1       0             -218263.28      163.48123    
    249200   319.85018     -218735.33      0             -218266.2      -736.22968    
    249300   319.19715     -218740.37      0             -218272.19     -104.44102    
    249400   313.52521     -218739.39      0             -218279.54     -495.74737    
    249500   319.11533     -218743.85      0             -218275.8       87.014203    
    249600   319.88868     -218740.18      0             -218270.99     -349.43564    
    249700   318.9058      -218734.59      0             -218266.85     -585.82943    
    249800   319.5669      -218732.41      0             -218263.7      -518.08696    
    249900   321.6168      -218733.86      0             -218262.14      1164.122     
    250000   320.64251     -218737         0             -218266.71      312.22072    
    250100   319.15401     -218742.53      0             -218274.43     -68.211282    
    250200   317.74625     -218739.16      0             -218273.12      65.43755     
    250300   319.223       -218734.6       0             -218266.39     -616.66821    
    250400   320.66967     -218733.51      0             -218263.18     -412.74594    
    250500   321.7403      -218736.82      0             -218264.92     -1353.4543    
    250600   319.04632     -218736.01      0             -218268.06      663.12213    
    250700   319.84702     -218739.65      0             -218270.52      1607.7769    
    250800   320.32052     -218739.18      0             -218269.37      346.13428    
    250900   320.55564     -218734.12      0             -218263.96     -601.912      
    251000   324.4004      -218734.56      0             -218258.76     -253.54139    
    251100   324.47728     -218736.53      0             -218260.61     -488.06829    
    251200   321.05461     -218739.87      0             -218268.97     -468.06931    
    251300   317.96576     -218736.91      0             -218270.54      314.46762    
    251400   317.96031     -218734.37      0             -218268.02     -536.07034    
    251500   323.28358     -218738.63      0             -218264.46     -578.82494    
    251600   320.47501     -218727.24      0             -218257.2       352.90086    
    251700   324.75167     -218728.08      0             -218251.76      996.13086    
    251800   325.3539      -218737.35      0             -218260.15     -607.03031    
    251900   321.14947     -218736.52      0             -218265.49     -664.05148    
    252000   319.08277     -218736.28      0             -218268.28     -157.29248    
    252100   319.27551     -218736.57      0             -218268.29     -224.5998     
    252200   320.43412     -218734.27      0             -218264.29      282.4102     
    252300   325.4331      -218736.94      0             -218259.62     -605.08009    
    252400   322.81539     -218732.61      0             -218259.13      272.972      
    252500   319.40246     -218735.8       0             -218267.33     -220.71909    
    252600   321.37253     -218743.71      0             -218272.34      701.67966    
    252700   318.34049     -218738.89      0             -218271.97     -629.44306    
    252800   320.80962     -218736.54      0             -218266        -215.26347    
    252900   319.69305     -218728.42      0             -218259.52      955.50644    
    253000   324.17858     -218735.52      0             -218260.05      1425.3987    
    253100   323.12066     -218736.14      0             -218262.21      873.91047    
    253200   320.27256     -218737.72      0             -218267.97      53.963412    
    253300   319.09017     -218738.02      0             -218270        -102.70832    
    253400   320.31864     -218738.27      0             -218268.45     -304.55431    
    253500   323.98728     -218734.35      0             -218259.15      359.92197    
    253600   324.66013     -218733.11      0             -218256.92      700.17641    
    253700   322.68486     -218736.6       0             -218263.31      528.54189    
    253800   323.4216      -218741.86      0             -218267.49      1082.1409    
    253900   320.12087     -218737.84      0             -218268.32      714.58568    
    254000   318.65533     -218734.7       0             -218267.32      777.27913    
    254100   322.92324     -218734.96      0             -218261.33      431.83765    
    254200   322.16958     -218727.45      0             -218254.92      368.11965    
    254300   321.05932     -218730.73      0             -218259.83     -479.99983    
    254400   319.90258     -218737.12      0             -218267.91     -232.21421    
    254500   322.87382     -218741.21      0             -218267.64     -871.94654    
    254600   320.79395     -218737.21      0             -218266.7      -587.40091    
    254700   319.03203     -218732.15      0             -218264.22      99.31989     
    254800   323.53668     -218734.35      0             -218259.82      177.94594    
    254900   321.57155     -218731.31      0             -218259.66     -285.52419    
    255000   319.28229     -218736.56      0             -218268.26     -88.026899    
    255100   319.99391     -218741.16      0             -218271.82     -236.85125    
    255200   320.57696     -218739.03      0             -218268.83      394.3116     
    255300   321.81895     -218735.77      0             -218263.76      167.77316    
    255400   324.07236     -218735.83      0             -218260.51      8.3960342    
    255500   321.018       -218729.86      0             -218259.02      238.73926    
    255600   320.19283     -218734.28      0             -218264.65     -890.95258    
    255700   319.44213     -218739.27      0             -218270.74     -234.75895    
    255800   318.70345     -218739.65      0             -218272.2       791.08137    
    255900   320.85801     -218739.06      0             -218268.45      404.66847    
    256000   320.81264     -218731         0             -218260.46      653.2551     
    256100   320.2925      -218728.47      0             -218258.69      149.63023    
    256200   320.91958     -218733.51      0             -218262.82      745.90906    
    256300   320.4285      -218735.83      0             -218265.86      378.83378    
    256400   320.08609     -218735.98      0             -218266.5       694.2921     
    256500   318.66398     -218734.72      0             -218267.33      784.86678    
    256600   319.32225     -218739.76      0             -218271.4      -164.62802    
    256700   317.71775     -218742.08      0             -218276.08     -248.13582    
    256800   315.71835     -218735.4       0             -218272.33     -337.72082    
    256900   323.18465     -218738.4       0             -218264.38      91.102479    
    257000   319.77802     -218732.91      0             -218263.89     -926.97799    
    257100   321.66174     -218736.37      0             -218264.59      551.15427    
    257200   316.59141     -218733.82      0             -218269.47     -723.11272    
    257300   319.36247     -218745.09      0             -218276.68      544.19007    
    257400   314.61087     -218735.92      0             -218274.47      346.4522     
    257500   316.73892     -218730.84      0             -218266.28     -1059.7565    
    257600   320.44017     -218734.59      0             -218264.6      -130.41586    
    257700   319.96054     -218735.8       0             -218266.51     -22.013322    
    257800   319.87342     -218738.75      0             -218269.59     -282.52964    
    257900   317.85765     -218741.07      0             -218274.86      1110.3297    
    258000   316.99913     -218741.31      0             -218276.36     -1155.3865    
    258100   317.32447     -218733.84      0             -218268.41     -1097.763     
    258200   320.25887     -218731.61      0             -218261.88      717.21517    
    258300   321.66323     -218734.91      0             -218263.12     -114.19429    
    258400   318.3338      -218735.56      0             -218268.66     -861.82577    
    258500   316.55421     -218737.71      0             -218273.42      482.81734    
    258600   321.54459     -218742.12      0             -218270.5      -291.36417    
    258700   321.45567     -218730.09      0             -218258.6       79.476866    
    258800   320.58151     -218730.25      0             -218260.05     -627.35245    
    258900   321.80724     -218739.09      0             -218267.09     -567.91162    
    259000   317.00737     -218735.95      0             -218270.99     -165.85981    
    259100   318.44694     -218736.64      0             -218269.56     -567.24048    
    259200   323.54093     -218735.74      0             -218261.2      -102.1287     
    259300   320.13637     -218726.97      0             -218257.42      297.27306    
    259400   319.26207     -218729.38      0             -218261.12      19.27999     
    259500   323.83249     -218739.31      0             -218264.34     -436.43526    
    259600   319.09392     -218736.45      0             -218268.43     -537.32655    
    259700   318.84145     -218737.58      0             -218269.93      241.54927    
    259800   315.65607     -218730.35      0             -218267.38      621.42851    
    259900   325.7437      -218733.88      0             -218256.11     -226.12332    
    260000   322.48579     -218729.11      0             -218256.12     -258.39905    
    260100   320.58723     -218733.39      0             -218263.18     -552.22647    
    260200   320.01717     -218736.5       0             -218267.12     -85.711703    
    260300   319.98931     -218737.36      0             -218268.03     -549.24247    
    260400   318.42162     -218735.94      0             -218268.9      -332.44448    
    260500   320.34558     -218735.36      0             -218265.51     -612.30978    
    260600   322.55856     -218732.07      0             -218258.97     -970.07368    
    260700   321.7649      -218733.15      0             -218261.22      60.168451    
    260800   321.80677     -218741.37      0             -218269.37     -726.25019    
    260900   316.24624     -218735.25      0             -218271.41     -541.34954    
    261000   321.48605     -218740.74      0             -218269.21      18.039189    
    261100   319.54734     -218733.8       0             -218265.11      1002.6718    
    261200   320.30498     -218731.73      0             -218261.94      656.97736    
    261300   320.18525     -218734.32      0             -218264.7      -835.0026     
    261400   317.81892     -218742.38      0             -218276.23      359.7227     
    261500   317.43026     -218740.14      0             -218274.56      129.18883    
    261600   319.30609     -218734.69      0             -218266.36     -88.349424    
    261700   322.87534     -218736.95      0             -218263.38      207.36883    
    261800   320.07895     -218734.02      0             -218264.55      599.37617    
    261900   319.12255     -218738.04      0             -218269.97      384.69726    
    262000   316.47355     -218741.28      0             -218277.11      55.647494    
    262100   318.56547     -218742.48      0             -218275.23      200.955      
    262200   320.41        -218736.98      0             -218267.03     -438.17744    
    262300   324.16504     -218740.73      0             -218265.27      98.639095    
    262400   320.78259     -218737.2       0             -218266.71      90.745076    
    262500   318.24462     -218736.85      0             -218270.08      592.32282    
    262600   318.59226     -218739.7       0             -218272.42      637.69815    
    262700   321.74351     -218737.97      0             -218266.06     -363.44932    
    262800   321.39828     -218730.78      0             -218259.38      550.30519    
    262900   322.60744     -218733.57      0             -218260.4       105.64457    
    263000   320.13953     -218735.88      0             -218266.33     -909.41434    
    263100   319.72179     -218737.41      0             -218268.47      242.20224    
    263200   321.71432     -218739.34      0             -218267.47      352.52017    
    263300   323.54869     -218738.98      0             -218264.42      347.59915    
    263400   324.56779     -218737.25      0             -218261.2      -761.20589    
    263500   324.18596     -218732.62      0             -218257.13      204.29337    
    263600   324.26032     -218735.01      0             -218259.42     -59.27999     
    263700   321.2497      -218738.74      0             -218267.56     -82.34832     
    263800   320.46825     -218741.32      0             -218271.28      568.73177    
    263900   320.99005     -218740.24      0             -218269.44      272.17412    
    264000   320.6219      -218732.71      0             -218262.45      1076.9745    
    264100   323.12741     -218731.93      0             -218257.99      489.81102    
    264200   320.41146     -218733.39      0             -218263.44      360.52974    
    264300   316.69207     -218738.06      0             -218273.57     -703.75128    
    264400   315.26826     -218734.01      0             -218271.6       778.00275    
    264500   321.28278     -218736.21      0             -218264.98     -593.222      
    264600   319.70447     -218731.41      0             -218262.49     -868.57174    
    264700   321.87151     -218736.76      0             -218264.67     -14.002746    
    264800   319.15932     -218741.49      0             -218273.37      80.78702     
    264900   317.07176     -218738.92      0             -218273.86      290.40547    
    265000   316.57115     -218733.92      0             -218269.6      -432.33321    
    265100   320.93563     -218736.69      0             -218265.97      18.43414     
    265200   320.84004     -218736.33      0             -218265.75     -188.80714    
    265300   317.07078     -218732.09      0             -218267.03     -6.4362384    
    265400   321.95836     -218737.73      0             -218265.51     -725.39626    
    265500   322.26864     -218735.83      0             -218263.15      920.91929    
    265600   321.87939     -218734         0             -218261.89     -528.87117    
    265700   325.37971     -218741.94      0             -218264.7      -998.00117    
    265800   315.3711      -218734.58      0             -218272.02      1131.1264    
    265900   317.2653      -218737.82      0             -218272.48      438.153      
    266000   318.15221     -218732.97      0             -218266.33     -304.26125    
    266100   323.73409     -218731.99      0             -218257.16      359.62829    
    266200   327.30793     -218738.84      0             -218258.77      1339.6538    
    266300   321.50542     -218736.53      0             -218264.97     -1063.6452    
    266400   317.9695      -218735.29      0             -218268.92     -735.80158    
    266500   319.02396     -218737.37      0             -218269.45     -339.28967    
    266600   320.80123     -218735.33      0             -218264.81     -1176.5548    
    266700   325.67125     -218734.37      0             -218256.7      -243.5706     
    266800   319.33974     -218727.17      0             -218258.79      704.29463    
    266900   318.3079      -218732.57      0             -218265.7       224.98764    
    267000   318.94481     -218735.64      0             -218267.84      924.08881    
    267100   320.57525     -218738.23      0             -218268.04     -259.25793    
    267200   319.93596     -218736.97      0             -218267.71     -590.79602    
    267300   319.39955     -218731.66      0             -218263.2       291.28691    
    267400   323.27444     -218732.02      0             -218257.87     -452.84886    
    267500   321.39087     -218731.51      0             -218260.12      494.85736    
    267600   318.12911     -218735.63      0             -218269.03      860.8167     
    267700   321.60232     -218741.88      0             -218270.18     -1186.1573    
    267800   321.38633     -218739.88      0             -218268.5      -1002.2035    
    267900   316.227       -218727.91      0             -218264.09     -307.08175    
    268000   319.97923     -218724.1       0             -218254.78     -1601.9902    
    268100   322.99213     -218730.02      0             -218256.28     -1021.6006    
    268200   322.27618     -218733.75      0             -218261.06     -793.48919    
    268300   319.9868      -218735.15      0             -218265.83      285.47906    
    268400   317.38222     -218734.91      0             -218269.4       208.35206    
    268500   318.71271     -218737.33      0             -218269.87     -294.40486    
    268600   320.24011     -218734.82      0             -218265.12     -10.624858    
    268700   326.28098     -218736.55      0             -218257.99      350.6552     
    268800   321.31216     -218731.5       0             -218260.23      417.51851    
    268900   317.62771     -218733.54      0             -218267.67     -263.49834    
    269000   317.26502     -218734.9       0             -218269.56     -498.21394    
    269100   318.5245      -218736.18      0             -218269        -598.5418     
    269200   322.03613     -218737.66      0             -218265.32     -936.58645    
    269300   320.75262     -218727.64      0             -218257.19     -811.34641    
    269400   322.73128     -218727.81      0             -218254.45      518.18326    
    269500   320.38761     -218732.56      0             -218262.64      336.66861    
    269600   319.91345     -218736.26      0             -218267.04     -860.29793    
    269700   318.01285     -218732.21      0             -218265.78     -36.894824    
    269800   320.35904     -218733.86      0             -218263.99      568.44007    
    269900   320.22463     -218734.97      0             -218265.29     -342.27325    
    270000   320.48567     -218739.96      0             -218269.9       221.35199    
    270100   317.84105     -218741.06      0             -218274.88     -125.53345    
    270200   319.72024     -218741.09      0             -218272.15      841.30279    
    270300   320.59568     -218732         0             -218261.77      147.26227    
    270400   324.24586     -218736.37      0             -218260.79     -253.38777    
    270500   318.81097     -218733.81      0             -218266.21     -916.55284    
    270600   319.75584     -218740.53      0             -218271.54     -490.94272    
    270700   318.63866     -218739.69      0             -218272.34      369.09279    
    270800   321.31347     -218740.97      0             -218269.7       1895.522     
    270900   320.2752      -218737.52      0             -218267.77      963.06167    
    271000   318.27926     -218734.21      0             -218267.38     -681.41669    
    271100   321.1347      -218738.09      0             -218267.08     -219.60346    
    271200   319.54418     -218736.31      0             -218267.63     -390.07546    
    271300   319.02095     -218734.15      0             -218266.23      765.7946     
    271400   321.98903     -218736.52      0             -218264.25     -954.36133    
    271500   319.35439     -218733.6       0             -218265.2      -491.97349    
    271600   318.75379     -218737.2       0             -218269.68     -591.45792    
    271700   315.88072     -218738.6       0             -218275.3       231.16852    
    271800   320.70645     -218743.12      0             -218272.73      250.73175    
    271900   318.60922     -218729.98      0             -218262.67     -17.912595    
    272000   319.17789     -218730.45      0             -218262.31      111.46436    
    272100   322.32757     -218737.44      0             -218264.68      601.86405    
    272200   319.1153      -218738.89      0             -218270.84      225.48424    
    272300   320.04967     -218745.54      0             -218276.12      615.84281    
    272400   317.55616     -218737.29      0             -218271.52      177.02989    
    272500   323.40385     -218735.64      0             -218261.3      -236.70898    
    272600   320.24526     -218733.33      0             -218263.62     -694.24098    
    272700   320.72003     -218739.81      0             -218269.41     -4.9881652    
    272800   319.89922     -218742.93      0             -218273.73     -1086.4163    
    272900   317.4218      -218738.06      0             -218272.5       68.102551    
    273000   320.95741     -218733.51      0             -218262.76      881.36874    
    273100   320.90341     -218732.18      0             -218261.51     -313.01213    
    273200   320.58169     -218734.86      0             -218264.66      314.24613    
    273300   321.17031     -218740.5       0             -218269.43      126.58427    
    273400   317.943       -218737.84      0             -218271.51      830.59732    
    273500   316.39262     -218732.16      0             -218268.11     -711.88972    
    273600   321.10517     -218726.3       0             -218255.33     -819.36941    
    273700   321.74096     -218728.92      0             -218257.02     -651.47125    
    273800   319.43036     -218733.85      0             -218265.34      746.07843    
    273900   316.38946     -218733.6       0             -218269.54     -241.54221    
    274000   317.71739     -218737.15      0             -218271.15      320.15162    
    274100   319.32851     -218739.23      0             -218270.87     -673.81305    
    274200   324.21638     -218740.66      0             -218265.12     -439.23016    
    274300   322.93243     -218733.21      0             -218259.56      43.017629    
    274400   322.08647     -218734.5       0             -218262.09      249.60361    
    274500   320.21205     -218739.81      0             -218270.15     -726.21683    
    274600   318.18117     -218737.08      0             -218270.4      -209.74921    
    274700   319.70193     -218737.07      0             -218268.16      725.92907    
    274800   319.95067     -218733.23      0             -218263.96      808.43706    
    274900   323.4632      -218731.99      0             -218257.56     -315.13321    
    275000   323.25343     -218727.87      0             -218253.75     -22.81685     
    275100   323.51039     -218736.85      0             -218262.36      521.79806    
    275200   319.4997      -218737.55      0             -218268.93     -497.26953    
    275300   319.08853     -218739.56      0             -218271.55     -801.06451    
    275400   317.88459     -218735.43      0             -218269.19     -619.92396    
    275500   321.46411     -218735.55      0             -218264.05      371.48904    
    275600   322.0573      -218729.71      0             -218257.34     -33.240807    
    275700   324.98227     -218733.16      0             -218256.51     -180.54432    
    275800   321.27575     -218739.71      0             -218268.49      147.01872    
    275900   317.79432     -218737.29      0             -218271.17      380.17104    
    276000   318.76816     -218736.71      0             -218269.16     -488.8223     
    276100   321.09556     -218735.62      0             -218264.66      932.64367    
    276200   320.8878      -218731.35      0             -218260.7       723.94284    
    276300   320.07459     -218730.9       0             -218261.44     -375.05058    
    276400   322.6795      -218743.15      0             -218269.87     -828.63851    
    276500   318.16005     -218740.75      0             -218274.1      -1174.5467    
    276600   316.7715      -218734.63      0             -218270.02     -86.237355    
    276700   320.03607     -218733.22      0             -218263.82     -403.99824    
    276800   321.21056     -218735.38      0             -218264.25     -155.09127    
    276900   320.05023     -218736.13      0             -218266.71     -291.57437    
    277000   318.06697     -218734.96      0             -218268.45      72.285628    
    277100   317.74838     -218734.62      0             -218268.58      77.136899    
    277200   317.08626     -218732.9       0             -218267.82      24.615692    
    277300   320.94525     -218738.99      0             -218268.25     -618.90641    
    277400   319.8045      -218738.72      0             -218269.66     -599.15763    
    277500   318.98296     -218738.09      0             -218270.23      186.97554    
    277600   319.94404     -218738.19      0             -218268.92     -372.68483    
    277700   317.78187     -218732.12      0             -218266.02     -921.76743    
    277800   321.82483     -218734.61      0             -218262.59     -174.20754    
    277900   322.06363     -218736.29      0             -218263.92     -124.98937    
    278000   318.06802     -218738.18      0             -218271.66     -345.71272    
    278100   317.2069      -218739.24      0             -218273.98     -758.96534    
    278200   318.81869     -218738.74      0             -218271.12      373.06434    
    278300   322.42569     -218733.9       0             -218260.99     -994.36977    
    278400   325.06825     -218736.43      0             -218259.65     -926.10094    
    278500   318.72835     -218731.62      0             -218264.14      248.66282    
    278600   318.23566     -218736.93      0             -218270.17      950.91281    
    278700   316.41221     -218736.52      0             -218272.43      179.71375    
    278800   316.81646     -218733.79      0             -218269.11      466.28918    
    278900   321.57119     -218730.97      0             -218259.32      411.05078    
    279000   322.92489     -218729.53      0             -218255.89     -283.73838    
    279100   323.10399     -218734.57      0             -218260.67     -1042.7012    
    279200   320.08968     -218735.84      0             -218266.36     -234.74017    
    279300   320.44947     -218739.21      0             -218269.2      -410.55264    
    279400   319.17736     -218738.26      0             -218270.12     -1731.1624    
    279500   319.24236     -218738.26      0             -218270.02     -1588.0897    
    279600   318.81284     -218734.23      0             -218266.62     -771.63051    
    279700   321.53065     -218732.86      0             -218261.26      280.19607    
    279800   322.89006     -218735.68      0             -218262.09     -1214.6432    
    279900   318.43697     -218737.17      0             -218270.11      289.84539    
    280000   319.69934     -218742.52      0             -218273.61      616.04844    
    280100   320.74134     -218741.98      0             -218271.55      275.23396    
    280200   321.93938     -218741.01      0             -218268.82      275.06133    
    280300   318.78954     -218734.61      0             -218267.04      506.38467    
    280400   319.76137     -218733.84      0             -218264.84      366.18864    
    280500   324.35794     -218738.55      0             -218262.81     -548.3307     
    280600   321.43175     -218732.74      0             -218261.29     -712.88633    
    280700   320.95257     -218736.12      0             -218265.38     -667.0675     
    280800   320.69638     -218739.86      0             -218269.49     -912.29717    
    280900   317.95045     -218736.92      0             -218270.57     -935.83943    
    281000   321.25082     -218741.13      0             -218269.95     -731.64443    
    281100   316.36166     -218729.21      0             -218265.19      456.84644    
    281200   322.86184     -218733.37      0             -218259.82     -513.98216    
    281300   325.23116     -218738.03      0             -218261.01      830.72964    
    281400   319.51826     -218739.94      0             -218271.3       438.35354    
    281500   317.71848     -218738.22      0             -218272.22     -351.57124    
    281600   316.15015     -218732.6       0             -218268.89      28.62166     
    281700   322.15767     -218736.4       0             -218263.88     -829.5911     
    281800   323.76111     -218735.34      0             -218260.47     -886.46449    
    281900   322.73386     -218733.04      0             -218259.68     -267.84529    
    282000   321.22248     -218737.29      0             -218266.15      856.96848    
    282100   317.78227     -218738.38      0             -218272.29     -622.47001    
    282200   318.32224     -218739.5       0             -218272.61     -235.64497    
    282300   320.10428     -218736.08      0             -218266.58     -54.620794    
    282400   323.73089     -218735.74      0             -218260.92     -250.99542    
    282500   321.81603     -218734.12      0             -218262.1      -130.2347     
    282600   318.8627      -218733.76      0             -218266.08     -367.16004    
    282700   317.00236     -218732.35      0             -218267.4      -20.249178    
    282800   318.6853      -218735.82      0             -218268.4      -138.97865    
    282900   318.86309     -218737.62      0             -218269.94     -270.68491    
    283000   318.23373     -218739.8       0             -218273.04      171.18788    
    283100   319.23476     -218741.35      0             -218273.13     -439.61178    
    283200   318.7263      -218734.08      0             -218266.59     -487.91931    
    283300   320.74765     -218732.18      0             -218261.74      270.57629    
    283400   322.35849     -218736.21      0             -218263.4      -38.080561    
    283500   319.08885     -218737.85      0             -218269.84     -89.014674    
    283600   319.21026     -218742.1       0             -218273.91     -239.62919    
    283700   320.08351     -218741.58      0             -218272.11      94.971563    
    283800   322.49562     -218742.64      0             -218269.63     -818.77819    
    283900   321.29055     -218736.37      0             -218265.13     -414.05167    
    284000   321.42533     -218732.94      0             -218261.5      -277.03074    
    284100   321.54149     -218735.19      0             -218263.58     -305.14071    
    284200   318.68741     -218739.97      0             -218272.55      647.57955    
    284300   316.78381     -218739.42      0             -218274.79      888.99906    
    284400   320.25108     -218739.68      0             -218269.96      188.75007    
    284500   318.1478      -218732.96      0             -218266.32     -398.27983    
    284600   321.38431     -218737.29      0             -218265.91      186.72805    
    284700   320.84803     -218737.84      0             -218267.24     -949.11438    
    284800   319.36719     -218736.71      0             -218268.29      203.20505    
    284900   318.16461     -218738.84      0             -218272.18      228.86711    
    285000   317.36346     -218738.46      0             -218272.98     -132.49532    
    285100   316.65752     -218731.62      0             -218267.18      378.68771    
    285200   319.37073     -218730.89      0             -218262.47     -140.14624    
    285300   321.27405     -218734.12      0             -218262.9      -695.62171    
    285400   319.24761     -218740.51      0             -218272.27     -540.44973    
    285500   316.68127     -218740.27      0             -218275.78     -682.34623    
    285600   315.44331     -218733.62      0             -218270.95      655.33166    
    285700   320.32484     -218735.82      0             -218266        -489.78367    
    285800   319.76226     -218734.98      0             -218265.98      476.69909    
    285900   321.64709     -218739.18      0             -218267.42      1822.4142    
    286000   315.57083     -218734.9       0             -218272.05      264.97864    
    286100   318.01603     -218746         0             -218279.56     -882.5041     
    286200   317.47516     -218741.83      0             -218276.18     -36.582042    
    286300   320.26051     -218738.6       0             -218268.87     -655.73264    
    286400   320.16249     -218737.4       0             -218267.81     -452.06245    
    286500   320.90589     -218736.03      0             -218265.36     -1235.2817    
    286600   321.99986     -218735.02      0             -218262.74     -314.95865    
    286700   324.1348      -218738.99      0             -218263.58     -798.04325    
    286800   317.94247     -218736.03      0             -218269.7      -1182.0223    
    286900   317.26739     -218740.05      0             -218274.71     -1060.6129    
    287000   321.90849     -218744.29      0             -218272.14     -378.47708    
    287100   322.87597     -218737.26      0             -218263.69      119.57306    
    287200   321.60133     -218733.22      0             -218261.52      751.7301     
    287300   322.34248     -218737.21      0             -218264.43      1252.6425    
    287400   321.11387     -218739.24      0             -218268.26     -697.70095    
    287500   319.50221     -218739.6       0             -218270.98     -853.50412    
    287600   319.05375     -218740.58      0             -218272.62     -518.68033    
    287700   316.85642     -218737.03      0             -218272.29     -244.73825    
    287800   317.61387     -218733.31      0             -218267.46     -328.50705    
    287900   323.21223     -218735.79      0             -218261.73     -743.22048    
    288000   324.27275     -218737.11      0             -218261.49     -675.28035    
    288100   323.72303     -218743.81      0             -218269.01     -1099.2057    
    288200   319.99742     -218743.3       0             -218273.96     -437.47145    
    288300   319.31724     -218740.32      0             -218271.98      614.44114    
    288400   319.70779     -218736.71      0             -218267.79     -309.16095    
    288500   321.74228     -218737.61      0             -218265.71      12.98712     
    288600   320.97973     -218738.1       0             -218267.31      394.46903    
    288700   317.55269     -218736.03      0             -218270.28      126.22489    
    288800   313.00728     -218736.62      0             -218277.53     -25.240995    
    288900   319.4579      -218746.35      0             -218277.8      -294.03093    
    289000   318.72698     -218737.19      0             -218269.71      398.47078    
    289100   322.65556     -218738.29      0             -218265.05      917.85232    
    289200   323.90498     -218740.03      0             -218264.96     -1567.555     
    289300   321.2818      -218740.39      0             -218269.16     -442.96308    
    289400   316.25011     -218740.84      0             -218277        -658.6298     
    289500   319.6326      -218743.72      0             -218274.91     -528.05915    
    289600   318.6209      -218738.4       0             -218271.07     -866.12596    
    289700   319.67301     -218736.89      0             -218268.02     -243.67432    
    289800   321.05744     -218735.81      0             -218264.91     -686.38618    
    289900   320.53838     -218734.5       0             -218264.36     -547.84732    
    290000   318.66395     -218740.19      0             -218272.8      -500.80035    
    290100   316.37099     -218740.58      0             -218276.56      1509.4567    
    290200   320.57923     -218741.67      0             -218271.47      536.34646    
    290300   318.39317     -218732.07      0             -218265.08     -453.71248    
    290400   322.12088     -218737.28      0             -218264.82     -91.925743    
    290500   319.59246     -218736.78      0             -218268.03     -548.93784    
    290600   315.62236     -218734.61      0             -218271.68     -680.96227    
    290700   317.82248     -218737.46      0             -218271.31     -502.44332    
    290800   323.42205     -218738.35      0             -218263.99     -544.55283    
    290900   319.57617     -218728.52      0             -218259.79     -231.25593    
    291000   321.68183     -218732.97      0             -218261.15     -582.1993     
    291100   324.74062     -218745.22      0             -218268.92     -569.99606    
    291200   322.2945      -218744.46      0             -218271.75      659.73197    
    291300   321.4127      -218742.13      0             -218270.7      -160.30013    
    291400   319.97446     -218736.63      0             -218267.31     -565.49164    
    291500   322.70902     -218732.75      0             -218259.43      613.46057    
    291600   323.38595     -218726.1       0             -218251.79      224.44798    
    291700   327.51082     -218729.57      0             -218249.21      193.31197    
    291800   320.87698     -218731.66      0             -218261.03      346.26677    
    291900   323.77612     -218742.15      0             -218267.26     -26.254103    
    292000   314.88803     -218734.84      0             -218272.99      260.52312    
    292100   316.41524     -218737.01      0             -218272.92     -1716.7593    
    292200   321.59484     -218737.43      0             -218265.74     -893.85564    
    292300   323.9129      -218737.09      0             -218262        -1588.2935    
    292400   319.34442     -218733.31      0             -218264.93     -779.56573    
    292500   323.34369     -218742.12      0             -218267.86     -1182.9576    
    292600   318.81933     -218738.04      0             -218270.42     -591.24779    
    292700   318.63467     -218736.99      0             -218269.64     -504.43623    
    292800   316.21409     -218732.91      0             -218269.11      416.40784    
    292900   321.19653     -218738.15      0             -218267.04      708.39374    
    293000   318.74795     -218731.29      0             -218263.77      972.96909    
    293100   321.89284     -218732.59      0             -218260.47     -552.69209    
    293200   323.13836     -218735.98      0             -218262.03     -357.66939    
    293300   320.4672      -218740.24      0             -218270.21     -104.44089    
    293400   319.02536     -218740.97      0             -218273.05     -188.61703    
    293500   320.25547     -218740.16      0             -218270.43     -1297.1873    
    293600   322.04648     -218735.37      0             -218263.02     -446.93727    
    293700   321.53272     -218731.27      0             -218259.67     -286.47999    
    293800   321.96521     -218733.99      0             -218261.76     -242.40696    
    293900   321.55736     -218737.77      0             -218266.14      718.69866    
    294000   324.29142     -218746.34      0             -218270.69      120.34066    
    294100   319.56112     -218739.71      0             -218271.01     -423.05106    
    294200   321.16151     -218733.83      0             -218262.78      207.88998    
    294300   321.3486      -218728.55      0             -218257.22      37.587182    
    294400   320.12797     -218730.91      0             -218261.38      656.09133    
    294500   320.29995     -218736.17      0             -218266.38     -514.1787     
    294600   320.19456     -218738.12      0             -218268.49     -534.68863    
    294700   320.3852      -218737.09      0             -218267.18     -482.95511    
    294800   321.73747     -218735.26      0             -218263.37     -719.98809    
    294900   323.60589     -218731.11      0             -218256.47     -117.28505    
    295000   321.81639     -218731.5       0             -218259.49      327.20183    
    295100   322.96321     -218740.8       0             -218267.1       167.8194     
    295200   318.08282     -218735.93      0             -218269.39     -325.29939    
    295300   320.81126     -218741.1       0             -218270.56     -493.48456    
    295400   322.00129     -218738.8       0             -218266.52     -263.51679    
    295500   325.61383     -218736.22      0             -218258.64     -53.300437    
    295600   322.62367     -218730.54      0             -218257.35     -492.40234    
    295700   323.32844     -218738.89      0             -218264.66     -411.95896    
    295800   320.9568      -218738.1       0             -218267.35      382.60999    
    295900   320.99258     -218739.42      0             -218268.62      867.92491    
    296000   319.10898     -218739.16      0             -218271.12      172.99804    
    296100   319.72402     -218741.33      0             -218272.38     -4.4704317    
    296200   319.80054     -218740.19      0             -218271.13     -1370.028     
    296300   323.54349     -218738.95      0             -218264.4      -758.31873    
    296400   324.47878     -218735.76      0             -218259.84     -369.12638    
    296500   319.2589      -218730.97      0             -218262.71     -545.33779    
    296600   319.97485     -218740.61      0             -218271.3      -878.18625    
    296700   317.44558     -218736.88      0             -218271.28      15.514876    
    296800   316.34025     -218732.4       0             -218268.42     -1319.5826    
    296900   320.29796     -218733.17      0             -218263.39     -1009.1995    
    297000   322.34016     -218733.73      0             -218260.95     -280.21624    
    297100   320.5596      -218736.46      0             -218266.29     -1200.5897    
    297200   321.3531      -218745.35      0             -218274.01      16.081676    
    297300   319.88709     -218744.4       0             -218275.22     -121.71907    
    297400   318.35637     -218736.11      0             -218269.18      140.43192    
    297500   319.92279     -218732.22      0             -218262.99      294.96399    
    297600   320.01162     -218733.53      0             -218264.17     -291.88886    
    297700   322.85073     -218741.11      0             -218267.58     -270.46473    
    297800   317.50218     -218736.84      0             -218271.16      184.64667    
    297900   319.38634     -218741.25      0             -218272.8      -597.5238     
    298000   318.13342     -218741.35      0             -218274.74     -916.16       
    298100   319.05541     -218738.84      0             -218270.88     -222.74462    
    298200   322.89388     -218737.8       0             -218264.2      -537.19111    
    298300   320.62845     -218732.37      0             -218262.1      -296.74349    
    298400   322.45865     -218737.17      0             -218264.21      27.559954    
    298500   318.20365     -218740.58      0             -218273.87      779.38649    
    298600   317.98027     -218740.86      0             -218274.47     -36.446143    
    298700   319.3264      -218738.84      0             -218270.48     -1374.518     
    298800   320.75041     -218736.62      0             -218266.17     -147.25714    
    298900   320.07856     -218735.5       0             -218266.04      111.1679     
    299000   322.06916     -218739.03      0             -218266.64     -497.30105    
    299100   319.94354     -218736.78      0             -218267.51     -396.48328    
    299200   320.34382     -218740.83      0             -218270.97     -228.34372    
    299300   318.80298     -218748.21      0             -218280.62      1.0192378    
    299400   318.51224     -218745.4       0             -218278.23      812.90262    
    299500   317.69111     -218737.36      0             -218271.4      -964.11095    
    299600   323.55162     -218741.87      0             -218267.31     -964.88287    
    299700   322.30591     -218738.25      0             -218265.52     -129.8438     
    299800   321.62037     -218736.78      0             -218265.05     -113.02831    
    299900   321.38967     -218738.74      0             -218267.35     -1108.2322    
    300000   318.62982     -218740.73      0             -218273.39      133.90086    
    300100   319.09676     -218742.63      0             -218274.61      102.73084    
    300200   322.95736     -218740.57      0             -218266.89     -697.24683    
    300300   320.86593     -218733.9       0             -218263.28     -164.082      
    300400   321.34322     -218736.23      0             -218264.91      364.96153    
    300500   317.65262     -218733.46      0             -218267.55     -1027.4884    
    300600   318.72703     -218735.79      0             -218268.3      -640.95836    
    300700   322.09546     -218741.46      0             -218269.04     -160.80702    
    300800   323.37389     -218742.84      0             -218268.54      142.41697    
    300900   318.01967     -218734.59      0             -218268.15     -353.75652    
    301000   319.99758     -218737.21      0             -218267.86     -1119.16      
    301100   321.87829     -218738.58      0             -218266.48     -18.257657    
    301200   319.25784     -218734.69      0             -218266.43      62.62318     
    301300   317.73728     -218735.1       0             -218269.07     -418.3406     
    301400   315.93545     -218737         0             -218273.61      46.554231    
    301500   321.41071     -218743.32      0             -218271.91     -361.70295    
    301600   320.85173     -218734.96      0             -218264.36      269.25989    
    301700   323.71677     -218735.68      0             -218260.88      385.17144    
    301800   321.0497      -218734.8       0             -218263.91      151.29136    
    301900   319.3533      -218740.04      0             -218271.64      885.37147    
    302000   313.66317     -218736.31      0             -218276.25     -870.91968    
    302100   317.07211     -218738.18      0             -218273.13     -547.16636    
    302200   318.46937     -218734.74      0             -218267.63      746.11763    
    302300   322.2222      -218734.77      0             -218262.16      457.00034    
    302400   324.08028     -218737.13      0             -218261.8      -538.90039    
    302500   320.11551     -218738.07      0             -218268.55      409.51242    
    302600   319.17409     -218744.25      0             -218276.12      451.68143    
    302700   318.39699     -218740.86      0             -218273.86     -703.12154    
    302800   319.19046     -218736.33      0             -218268.17     -488.91015    
    302900   318.0284      -218732.26      0             -218265.8       10.285338    
    303000   320.4869      -218734.36      0             -218264.29     -1119.7895    
    303100   317.38493     -218735.09      0             -218269.57     -45.451183    
    303200   315.36388     -218740.32      0             -218277.78     -602.58424    
    303300   315.8443      -218738.19      0             -218274.93     -856.48233    
    303400   322.74873     -218740.7       0             -218267.32     -957.09939    
    303500   318.07412     -218731.48      0             -218264.95     -303.0274     
    303600   320.25215     -218734.23      0             -218264.51     -352.07714    
    303700   317.71778     -218735.66      0             -218269.66     -123.19068    
    303800   317.61692     -218743.36      0             -218277.51     -60.80896     
    303900   317.08615     -218740.7       0             -218275.62      502.41263    
    304000   318.85475     -218738.78      0             -218271.11     -168.06342    
    304100   319.40345     -218736.5       0             -218268.03      398.32692    
    304200   323.85828     -218740.68      0             -218265.67     -627.48972    
    304300   319.56526     -218735.79      0             -218267.08     -989.85579    
    304400   318.66659     -218742.96      0             -218275.57     -369.96822    
    304500   316.05421     -218741.5       0             -218277.93     -838.44419    
    304600   319.64665     -218739.41      0             -218270.58     -546.75081    
    304700   321.38031     -218737.72      0             -218266.35     -129.2183     
    304800   319.9187      -218735.73      0             -218266.5      -815.4739     
    304900   320.17361     -218735.88      0             -218266.28      408.077      
    305000   318.69182     -218736.04      0             -218268.61      95.971734    
    305100   318.46147     -218741.47      0             -218274.37      918.56612    
    305200   319.67108     -218744.65      0             -218275.79      1216.729     
    305300   320.3174      -218738.69      0             -218268.88      182.22929    
    305400   322.08206     -218735.62      0             -218263.22      293.85625    
    305500   322.00759     -218736.21      0             -218263.92      346.31086    
    305600   321.34512     -218738.69      0             -218267.37     -70.288421    
    305700   314.7362      -218733.17      0             -218271.54      619.80446    
    305800   319.32334     -218739.08      0             -218270.72     -244.21205    
    305900   325.28637     -218735.66      0             -218258.55     -743.38895    
    306000   325.27043     -218735.67      0             -218258.59     -714.25142    
    306100   315.52974     -218729.24      0             -218266.45      1243.1359    
    306200   318.3091      -218737.49      0             -218270.62      552.56998    
    306300   319.64901     -218740.92      0             -218272.08     -622.0951     
    306400   323.12962     -218740.25      0             -218266.31     -989.50523    
    306500   322.6369      -218732.92      0             -218259.7       274.56737    
    306600   321.13955     -218732.75      0             -218261.73     -1117.5438    
    306700   320.23196     -218734.96      0             -218265.27     -140.30391    
    306800   317.25754     -218733.22      0             -218267.9       179.29746    
    306900   320.50044     -218739.06      0             -218268.98     -418.46713    
    307000   318.28487     -218735.2       0             -218268.36      994.41552    
    307100   319.20147     -218736.27      0             -218268.09      548.1262     
    307200   318.52377     -218734.94      0             -218267.76     -890.40086    
    307300   319.95778     -218736.34      0             -218267.05     -726.36358    
    307400   321.36233     -218742.14      0             -218270.79     -997.13083    
    307500   317.05045     -218737.83      0             -218272.8       275.97385    
    307600   320.19119     -218739.57      0             -218269.94     -633.99551    
    307700   319.78291     -218732.08      0             -218263.05     -279.6694     
    307800   324.72497     -218738.43      0             -218262.16      291.9993     
    307900   318.69097     -218736.2       0             -218268.77      193.0136     
    308000   320.51648     -218743.64      0             -218273.53      590.38186    
    308100   317.2929      -218738.07      0             -218272.69      241.16727    
    308200   319.21893     -218739.06      0             -218270.86     -1075.7825    
    308300   320.78385     -218736.7       0             -218266.2      -1367.2465    
    308400   320.408       -218733.91      0             -218263.96     -192.68973    
    308500   318.31091     -218732.14      0             -218265.27     -967.6786     
    308600   315.92116     -218736.78      0             -218273.41      111.71019    
    308700   316.67898     -218740.21      0             -218275.73      30.490713    
    308800   319.66598     -218739.02      0             -218270.16     -63.495041    
    308900   321.56669     -218736.7       0             -218265.05     -121.38216    
    309000   319.54253     -218734.16      0             -218265.48      864.11467    
    309100   320.38944     -218737.64      0             -218267.72      472.8161     
    309200   316.4234      -218735.16      0             -218271.06     -747.39993    
    309300   318.26939     -218742.09      0             -218275.28     -380.83354    
    309400   316.426       -218743.37      0             -218279.27     -182.04967    
    309500   318.21083     -218740.17      0             -218273.45     -1090.6282    
    309600   318.56546     -218733.71      0             -218266.47     -95.093045    
    309700   321.20072     -218735.87      0             -218264.76      44.582416    
    309800   320.34812     -218735.9       0             -218266.04      421.81979    
    309900   316.25455     -218737.57      0             -218273.72     -1311.0323    
    310000   315.80193     -218740.13      0             -218276.94     -1158.2695    
    310100   317.35195     -218737.08      0             -218271.61     -943.56633    
    310200   322.46707     -218736.34      0             -218263.37     -153.69521    
    310300   321.19581     -218735.71      0             -218264.61     -157.53914    
    310400   323.59996     -218743.23      0             -218268.6       269.06593    
    310500   319.0585      -218740.58      0             -218272.61      225.80253    
    310600   319.10955     -218742.45      0             -218274.4       360.93276    
    310700   318.58571     -218735.37      0             -218268.1      -674.94351    
    310800   322.60479     -218734.55      0             -218261.38      144.65219    
    310900   321.98534     -218735.63      0             -218263.37      688.62916    
    311000   320.31097     -218739.58      0             -218269.78      862.83927    
    311100   318.8716      -218739.76      0             -218272.07      125.22948    
    311200   318.61        -218737.73      0             -218270.42     -17.280024    
    311300   322.1701      -218739.66      0             -218267.12     -680.08545    
    311400   318.77893     -218733.13      0             -218265.57     -353.68997    
    311500   322.2356      -218739.53      0             -218266.9      -682.29056    
    311600   315.17413     -218740.01      0             -218277.74     -1004.6448    
    311700   316.4344      -218740.56      0             -218276.45      530.01166    
    311800   318.79974     -218736.62      0             -218269.03      26.777123    
    311900   320.20471     -218735.3       0             -218265.65     -1263.1417    
    312000   323.63237     -218739.29      0             -218264.62     -1113.4509    
    312100   321.18826     -218739.65      0             -218268.56     -192.93375    
    312200   316.59738     -218742.13      0             -218277.77      362.55297    
    312300   317.12877     -218741.64      0             -218276.5       19.364013    
    312400   321.05978     -218741.68      0             -218270.78     -1118.8854    
    312500   320.72679     -218738.05      0             -218267.64     -205.16817    
    312600   318.15981     -218733.35      0             -218266.7      -270.66116    
    312700   321.80119     -218740.28      0             -218268.29     -249.71238    
    312800   319.29635     -218742.55      0             -218274.23      803.56409    
    312900   314.59275     -218741.11      0             -218279.7       322.36445    
    313000   318.02452     -218740.06      0             -218273.61     -383.12501    
    313100   320.4274      -218736.61      0             -218266.64      653.28748    
    313200   321.19468     -218736.46      0             -218265.35     -116.04576    
    313300   316.56915     -218730.95      0             -218266.63      94.215982    
    313400   320.32688     -218737.33      0             -218267.5      -363.94333    
    313500   319.52508     -218742.19      0             -218273.54      104.29953    
    313600   315.54529     -218739.54      0             -218276.72     -470.71858    
    313700   321.16142     -218740.83      0             -218269.78     -783.78853    
    313800   319.3516      -218732.76      0             -218264.36     -1058.5451    
    313900   320.76921     -218734.58      0             -218264.1       118.52021    
    314000   320.89781     -218736.91      0             -218266.24     -867.508      
    314100   317.7518      -218737.77      0             -218271.72     -345.86913    
    314200   314.72511     -218742.43      0             -218280.82     -492.96653    
    314300   315.47382     -218740.66      0             -218277.95     -13.857937    
    314400   317.96535     -218738.26      0             -218271.9      -747.20441    
    314500   319.24168     -218736.25      0             -218268.02     -133.69371    
    314600   321.12745     -218735.61      0             -218264.61      87.869578    
    314700   321.6148      -218735.15      0             -218263.44     -817.87524    
    314800   320.98053     -218733.42      0             -218262.63     -1260.516     
    314900   319.48976     -218736.09      0             -218267.49     -373.24068    
    315000   317.64175     -218739.33      0             -218273.44     -439.09774    
    315100   319.85449     -218742.63      0             -218273.5      -345.23702    
    315200   319.40102     -218734.97      0             -218266.5       473.44951    
    315300   323.00715     -218733.82      0             -218260.06     -375.84884    
    315400   324.43447     -218738.4       0             -218262.55     -776.44929    
    315500   320.72779     -218737.89      0             -218267.48     -1220.8644    
    315600   317.45407     -218735.04      0             -218269.42      129.34372    
    315700   319.80449     -218736.88      0             -218267.82     -510.42018    
    315800   321.93503     -218736.24      0             -218264.05     -854.60008    
    315900   325.07485     -218731.69      0             -218254.89     -518.96838    
    316000   323.13467     -218731.07      0             -218257.13      411.58866    
    316100   321.75955     -218737.32      0             -218265.39      719.91833    
    316200   319.50764     -218737.94      0             -218269.32     -214.43765    
    316300   320.92971     -218740.85      0             -218270.14     -177.14389    
    316400   319.04002     -218736.89      0             -218268.95     -791.5293     
    316500   319.58459     -218729.21      0             -218260.47     -903.81212    
    316600   322.5521      -218732.16      0             -218259.07     -906.55238    
    316700   321.47798     -218737.41      0             -218265.9      -109.8676     
    316800   323.08648     -218742.38      0             -218268.5       463.65291    
    316900   318.93886     -218736.94      0             -218269.14      223.00239    
    317000   318.0421      -218735.31      0             -218268.84     -1785.4866    
    317100   322.56249     -218736.75      0             -218263.64      707.8897     
    317200   323.1993      -218731.83      0             -218257.79     -1862.0653    
    317300   323.26242     -218735.47      0             -218261.33     -201.67048    
    317400   318.32579     -218736.11      0             -218269.22     -711.59537    
    317500   317.27249     -218735.89      0             -218270.55     -1292.0553    
    317600   318.62825     -218737         0             -218269.67     -282.99695    
    317700   322.33806     -218736.73      0             -218263.95     -973.71558    
    317800   326.2877      -218736.79      0             -218258.22     -617.47148    
    317900   321.52998     -218735.1       0             -218263.5       721.72461    
    318000   317.89343     -218739.19      0             -218272.93      1936.8986    
    318100   317.8764      -218738.04      0             -218271.8       809.02679    
    318200   323.1793      -218740.7       0             -218266.69     -1405.6244    
    318300   319.5181      -218731.18      0             -218262.54     -602.16131    
    318400   319.54501     -218733.46      0             -218264.78      384.93962    
    318500   315.31917     -218736.58      0             -218274.1      -1798.3853    
    318600   319.30949     -218743.8       0             -218275.46     -851.22528    
    318700   316.33343     -218736.35      0             -218272.38      279.53403    
    318800   321.17213     -218738.84      0             -218267.77     -836.15699    
    318900   320.9814      -218737.69      0             -218266.9       387.53897    
    319000   320.07505     -218736.69      0             -218267.23     -452.61317    
    319100   324.30097     -218743.76      0             -218268.1      -787.8719     
    319200   315.23075     -218737.51      0             -218275.16     -333.03275    
    319300   318.49762     -218745.64      0             -218278.49     -184.45533    
    319400   317.66193     -218737.85      0             -218271.93     -479.15684    
    319500   321.60673     -218737.38      0             -218265.67      238.09507    
    319600   319.85477     -218735.12      0             -218265.98      598.47324    
    319700   321.56129     -218739.8       0             -218268.16     -997.47998    
    319800   321.44334     -218744.58      0             -218273.11     -1178.2431    
    319900   319.55478     -218746.84      0             -218278.14      982.92434    
    320000   316.81932     -218740.04      0             -218275.35      1398.2691    
    320100   322.45665     -218739         0             -218266.04     -345.73166    
    320200   322.98579     -218737.63      0             -218263.9       676.19447    
    320300   321.42546     -218737.31      0             -218265.87      685.35261    
    320400   319.36633     -218740.05      0             -218271.63     -394.34754    
    320500   313.56526     -218738.16      0             -218278.25      932.20055    
    320600   319.91996     -218749.35      0             -218280.12      270.17948    
    320700   316.06179     -218732.29      0             -218268.72     -855.42876    
    320800   319.8721      -218732.66      0             -218263.5      -1001.0004    
    320900   320.67393     -218734.25      0             -218263.91     -921.02096    
    321000   318.58689     -218735.91      0             -218268.63     -574.33375    
    321100   318.02842     -218740.9       0             -218274.44      165.15028    
    321200   318.85754     -218742.67      0             -218275        -144.86339    
    321300   320.16851     -218733.17      0             -218263.58     -451.15042    
    321400   323.37301     -218736.22      0             -218261.93     -4.2394972    
    321500   320.33075     -218737.07      0             -218267.23      200.32381    
    321600   318.4775      -218738.56      0             -218271.45     -417.15138    
    321700   319.1128      -218739.43      0             -218271.38     -1057.9635    
    321800   323.77416     -218739.55      0             -218264.67     -845.94886    
    321900   323.50955     -218733.23      0             -218258.73     -787.64131    
    322000   320.39487     -218731.57      0             -218261.64     -57.990499    
    322100   316.84224     -218733.03      0             -218268.31     -1004.8997    
    322200   317.62939     -218735.61      0             -218269.74     -513.59824    
    322300   319.32901     -218737.16      0             -218268.8      -836.20766    
    322400   319.68873     -218735.97      0             -218267.08     -476.77545    
    322500   322.94833     -218735.2       0             -218261.53      327.51974    
    322600   322.44201     -218729.59      0             -218256.66     -289.2693     
    322700   319.81504     -218732.82      0             -218263.74     -448.06936    
    322800   320.50868     -218739.41      0             -218269.31      9.4658518    
    322900   318.11024     -218735.49      0             -218268.91     -59.442616    
    323000   319.72245     -218737.25      0             -218268.31      132.94981    
    323100   323.25455     -218741.83      0             -218267.71      387.00067    
    323200   317.33473     -218732.83      0             -218267.39     -636.97295    
    323300   319.01253     -218733.59      0             -218265.69     -724.92736    
    323400   322.14473     -218738.71      0             -218266.22     -337.6117     
    323500   317.82059     -218735.75      0             -218269.59     -929.98231    
    323600   315.22307     -218736.8       0             -218274.46     -1433.6626    
    323700   321.63272     -218744.24      0             -218272.49     -221.34778    
    323800   321.48442     -218735         0             -218263.48     -459.64347    
    323900   323.07357     -218735.79      0             -218261.93     -1025.4053    
    324000   324.98994     -218742.07      0             -218265.4       98.741348    
    324100   317.45494     -218735.77      0             -218270.15     -478.19301    
    324200   315.08144     -218732.82      0             -218270.69      268.79077    
    324300   321.1739      -218740.39      0             -218269.32      50.765488    
    324400   321.93992     -218739.62      0             -218267.43      123.90511    
    324500   316.70891     -218730.68      0             -218266.16     -56.336301    
    324600   319.36596     -218734.36      0             -218265.94      195.30687    
    324700   320.13148     -218737.12      0             -218267.58     -123.56408    
    324800   318.71318     -218737.98      0             -218270.52      772.46426    
    324900   320.72533     -218742.96      0             -218272.55     -884.6736     
    325000   319.18629     -218736.7       0             -218268.55     -257.69298    
    325100   321.69715     -218733.31      0             -218261.47     -58.853351    
    325200   321.31887     -218732.59      0             -218261.31     -553.25433    
    325300   320.85425     -218737.96      0             -218267.36     -425.35009    
    325400   318.29719     -218736.95      0             -218270.1      -352.43455    
    325500   318.96739     -218737.27      0             -218269.43      104.73318    
    325600   322.7984      -218739.98      0             -218266.52      76.049907    
    325700   321.05428     -218734.97      0             -218264.07      369.66174    
    325800   320.97912     -218731.76      0             -218260.97      1321.6769    
    325900   324.5514      -218739.82      0             -218263.8       479.43471    
    326000   318.094       -218738.23      0             -218271.68     -237.77392    
    326100   317.49168     -218739.91      0             -218274.24     -11.019654    
    326200   315.96742     -218735.83      0             -218272.4      -191.82382    
    326300   321.24153     -218733.43      0             -218262.26     -628.37824    
    326400   321.70815     -218734.64      0             -218262.79     -793.53656    
    326500   315.88274     -218730.61      0             -218267.3      -452.6141     
    326600   319.35403     -218739.18      0             -218270.78     -895.78541    
    326700   316.56624     -218738.45      0             -218274.14     -872.41232    
    326800   318.07841     -218743.24      0             -218276.71     -1074.8737    
    326900   316.32965     -218736.67      0             -218272.7      -241.31066    
    327000   321.57681     -218736.64      0             -218264.97     -735.11555    
    327100   320.39111     -218734.13      0             -218264.21     -460.10389    
    327200   321.64882     -218740.2       0             -218268.43      167.30553    
    327300   316.0173      -218739         0             -218275.5       302.6153     
    327400   315.04324     -218740.48      0             -218278.4       1069.2408    
    327500   317.75246     -218733.61      0             -218267.56     -389.97599    
    327600   320.79152     -218733.24      0             -218262.73     -771.16402    
    327700   316.81777     -218729.32      0             -218264.64     -1243.4746    
    327800   317.47461     -218736.26      0             -218270.61     -890.03067    
    327900   318.05065     -218740.43      0             -218273.94     -885.78153    
    328000   322.12958     -218741.4       0             -218268.92     -1010.2482    
    328100   323.16332     -218735.45      0             -218261.46     -315.10869    
    328200   317.80484     -218729.15      0             -218263.02     -739.24277    
    328300   316.73654     -218730.5       0             -218265.94     -830.44937    
    328400   319.02308     -218737.69      0             -218269.77      455.73971    
    328500   319.91734     -218744.48      0             -218275.25     -195.97297    
    328600   313.33066     -218742.06      0             -218282.49      439.13776    
    328700   316.16818     -218743.08      0             -218279.35      178.0113     
    328800   318.8665      -218736.8       0             -218269.12      687.18889    
    328900   317.47009     -218732.35      0             -218266.71      501.12245    
    329000   318.8403      -218732.97      0             -218265.32     -365.3097     
    329100   324.17135     -218740.51      0             -218265.05      1211.9753    
    329200   319.14702     -218738.92      0             -218270.82     -302.83289    
    329300   319.8815      -218744.57      0             -218275.39     -527.1396     
    329400   321.29035     -218741.62      0             -218270.38     -211.8831     
    329500   318.4279      -218731.08      0             -218264.04     -157.59403    
    329600   318.77932     -218731.81      0             -218264.25      1215.0467    
    329700   321.23409     -218738.13      0             -218266.97     -901.5963     
    329800   317.46583     -218738.04      0             -218272.4      -907.58807    
    329900   316.52368     -218737.1       0             -218272.85     -130.14043    
    330000   319.54159     -218731.54      0             -218262.86      393.76013    
    330100   322.03834     -218731.54      0             -218259.2      -798.33053    
    330200   320.88945     -218734.79      0             -218264.13     -836.16869    
    330300   318.06412     -218735.59      0             -218269.08      192.21118    
    330400   316.48196     -218735.04      0             -218270.85      1026.1264    
    330500   316.43987     -218733.86      0             -218269.73      541.52722    
    330600   319.60176     -218731.94      0             -218263.18      544.74635    
    330700   324.6174      -218731.34      0             -218255.22     -129.25572    
    330800   325.51339     -218738.38      0             -218260.94     -672.23999    
    330900   318.62966     -218734.58      0             -218267.24     -667.56335    
    331000   320.35651     -218739.48      0             -218269.61     -513.84812    
    331100   319.76362     -218739.4       0             -218270.4      -1214.2567    
    331200   314.79961     -218731.11      0             -218269.39     -633.1346     
    331300   323.10779     -218737.3       0             -218263.4       51.501852    
    331400   322.99882     -218735.15      0             -218261.41     -527.64024    
    331500   321.52824     -218738.39      0             -218266.8      -259.72034    
    331600   319.19099     -218741.7       0             -218273.54     -505.87554    
    331700   316.24855     -218738.32      0             -218274.47     -389.785      
    331800   321.25614     -218742.55      0             -218271.36      20.899827    
    331900   319.03187     -218737.28      0             -218269.35      374.18514    
    332000   319.12899     -218736.55      0             -218268.48     -121.33879    
    332100   320.39903     -218736.63      0             -218266.7       129.88163    
    332200   322.29222     -218734.07      0             -218261.36      218.96245    
    332300   321.73133     -218732.53      0             -218260.64      117.75646    
    332400   322.63982     -218741.09      0             -218267.87     -525.47429    
    332500   318.50728     -218740.8       0             -218273.64     -527.17225    
    332600   316.87925     -218737.45      0             -218272.68      515.33192    
    332700   322.70828     -218740.19      0             -218266.87      270.17743    
    332800   318.73399     -218728.3       0             -218260.8      -1264.9167    
    332900   320.73905     -218733.01      0             -218262.57     -764.3494     
    333000   319.55312     -218734.03      0             -218265.34     -489.60072    
    333100   315.87837     -218731.83      0             -218268.52     -12.978052    
    333200   318.3971      -218738.91      0             -218271.92      195.16533    
    333300   318.25489     -218743.83      0             -218277.04     -703.78141    
    333400   314.61629     -218740.06      0             -218278.61     -1197.9106    
    333500   316.47035     -218734.55      0             -218270.37     -755.0721     
    333600   321.06015     -218735.66      0             -218264.75      148.52755    
    333700   323.45445     -218738.7       0             -218264.29     -288.17883    
    333800   317.60958     -218735.08      0             -218269.23      75.236086    
    333900   313.59657     -218736.95      0             -218276.99     -513.43151    
    334000   318.30717     -218744.44      0             -218277.58     -604.47591    
    334100   319.84373     -218741.35      0             -218272.23     -1448.1551    
    334200   321.67648     -218741.46      0             -218269.65     -103.87572    
    334300   320.2351      -218736.72      0             -218267.02     -1618.1739    
    334400   322.67489     -218738.06      0             -218264.79     -601.5335     
    334500   321.23037     -218735.5       0             -218264.34      360.25621    
    334600   320.66087     -218740.71      0             -218270.39      704.42078    
    334700   318.14239     -218742.95      0             -218276.33      690.30415    
    334800   318.05452     -218741.8       0             -218275.3       265.45373    
    334900   321.66043     -218736.06      0             -218264.28     -43.251246    
    335000   323.65716     -218737.44      0             -218262.72     -327.3358     
    335100   319.04547     -218735.61      0             -218267.66     -536.09542    
    335200   318.68636     -218739.07      0             -218271.65     -100.12372    
    335300   318.86202     -218738.5       0             -218270.83      563.64926    
    335400   322.14827     -218735.28      0             -218262.78     -718.57062    
    335500   324.40656     -218734.24      0             -218258.43     -629.36388    
    335600   323.04811     -218736.85      0             -218263.03     -101.454      
    335700   322.0718      -218740.86      0             -218268.47     -556.8186     
    335800   322.4681      -218742.05      0             -218269.08     -214.20385    
    335900   319.27438     -218736.99      0             -218268.71      116.81598    
    336000   318.00837     -218735.55      0             -218269.12     -96.809796    
    336100   325.22851     -218741.19      0             -218264.17     -702.67618    
    336200   324.72986     -218736.9       0             -218260.62     -1043.6761    
    336300   322.0866      -218734.45      0             -218262.04     -498.79422    
    336400   320.06212     -218739.63      0             -218270.19      929.87198    
    336500   319.23892     -218741.75      0             -218273.52     -316.67175    
    336600   318.34086     -218737.82      0             -218270.9       182.02187    
    336700   322.26121     -218739.6       0             -218266.94      468.71502    
    336800   318.95233     -218734.08      0             -218266.27     -376.07201    
    336900   319.98832     -218736.51      0             -218267.18      298.92941    
    337000   320.67598     -218738.56      0             -218268.22     -170.65192    
    337100   319.71323     -218737.56      0             -218268.63     -740.55702    
    337200   318.19334     -218735.24      0             -218268.54     -768.07174    
    337300   319.89667     -218735.55      0             -218266.35     -358.72341    
    337400   322.45822     -218736.78      0             -218263.83      418.99333    
    337500   319.34976     -218730.16      0             -218261.77     -230.69846    
    337600   323.51272     -218739.78      0             -218265.28     -802.18878    
    337700   318.88946     -218740.72      0             -218273        -108.88006    
    337800   316.53405     -218738.49      0             -218274.22      602.78428    
    337900   319.71946     -218738.37      0             -218269.44     -1067.3571    
    338000   322.99256     -218740.99      0             -218267.25     -703.10976    
    338100   319.59553     -218736         0             -218267.24     -2096.7931    
    338200   320.35579     -218736.67      0             -218266.8      -775.70788    
    338300   316.91354     -218735.27      0             -218270.45      642.13289    
    338400   315.36915     -218740.47      0             -218277.91      750.25484    
    338500   318.06647     -218744.28      0             -218277.76      134.51242    
    338600   319.34319     -218737.36      0             -218268.98     -16.691364    
    338700   321.9971      -218737.48      0             -218265.2      -301.68135    
    338800   319.1376      -218733.42      0             -218265.33     -194.46316    
    338900   323.42176     -218742.96      0             -218268.6       169.68178    
    339000   315.33508     -218737.33      0             -218274.82     -1016.1477    
    339100   320.14807     -218747.75      0             -218278.19     -298.90443    
    339200   316.46944     -218734.46      0             -218270.29     -141.25966    
    339300   323.30455     -218738.17      0             -218263.97      278.2673     
    339400   319.05237     -218732.43      0             -218264.47     -489.06152    
    339500   320.54758     -218737.94      0             -218267.79     -251.2385     
    339600   317.87781     -218740.98      0             -218274.75     -977.71076    
    339700   317.58313     -218740.73      0             -218274.93     -538.99818    
    339800   320.82832     -218735.77      0             -218265.2      -894.37237    
    339900   320.88286     -218733.52      0             -218262.87     -996.10783    
    340000   321.06468     -218737.07      0             -218266.16     -547.48206    
    340100   321.84179     -218742.74      0             -218270.69     -877.29656    
    340200   318.67255     -218740.34      0             -218272.94      60.835178    
    340300   318.0897      -218734.99      0             -218268.44      551.36288    
    340400   320.69685     -218730.87      0             -218260.5      -820.79874    
    340500   322.89952     -218734.5       0             -218260.9      -857.58996    
    340600   320.32603     -218737.18      0             -218267.35     -102.09385    
    340700   319.16849     -218738.07      0             -218269.94     -628.51002    
    340800   318.815       -218736.45      0             -218268.84     -814.52437    
    340900   319.34043     -218735.49      0             -218267.11      93.45593     
    341000   319.33872     -218732.1       0             -218263.73     -516.48308    
    341100   320.84239     -218730.07      0             -218259.48     -561.19406    
    341200   320.82889     -218731.14      0             -218260.57      149.74207    
    341300   320.12936     -218738.7       0             -218269.16     -881.98899    
    341400   317.4749      -218738.17      0             -218272.53      229.75617    
    341500   320.01414     -218739.69      0             -218270.32      445.21584    
    341600   317.5084      -218729.95      0             -218264.26      191.42799    
    341700   321.5046      -218730.86      0             -218259.3       357.57557    
    341800   321.17872     -218737.28      0             -218266.2      -1139.7914    
    341900   318.77463     -218742.48      0             -218274.93     -1815.3417    
    342000   316.89917     -218737.32      0             -218272.52     -588.10492    
    342100   319.35657     -218734.08      0             -218265.68      112.83571    
    342200   320.11657     -218732.45      0             -218262.93      62.937503    
    342300   319.45004     -218734.43      0             -218265.89     -196.57926    
    342400   316.82623     -218739.21      0             -218274.51     -89.658697    
    342500   317.35901     -218740.23      0             -218274.75      112.05661    
    342600   319.63069     -218740.6       0             -218271.79     -725.66615    
    342700   319.13361     -218737.04      0             -218268.96     -35.289132    
    342800   317.92726     -218732.93      0             -218266.62      1109.4265    
    342900   318.85662     -218734.83      0             -218267.16      291.23722    
    343000   321.72651     -218740.52      0             -218268.64      245.99743    
    343100   318.9924      -218738.53      0             -218270.66      12.121788    
    343200   319.70214     -218740.46      0             -218271.55     -585.4217     
    343300   317.34156     -218733.27      0             -218267.82      582.48111    
    343400   320.60223     -218732.8       0             -218262.57      180.79454    
    343500   324.79661     -218736.49      0             -218260.11      45.814881    
    343600   317.69062     -218732.79      0             -218266.82      55.339226    
    343700   319.41363     -218741.97      0             -218273.48     -116.48251    
    343800   320.20232     -218741.85      0             -218272.2      -44.909524    
    343900   318.58473     -218733.74      0             -218266.46     -495.5666     
    344000   319.34068     -218729.43      0             -218261.05     -930.82904    
    344100   324.22742     -218737.41      0             -218261.86     -1233.5795    
    344200   320.28411     -218734.4       0             -218264.64     -336.17285    
    344300   321.86856     -218739.18      0             -218267.09     -756.54193    
    344400   320.59007     -218740.7       0             -218270.48      335.19863    
    344500   317.86454     -218740.81      0             -218274.59     -186.33207    
    344600   319.08713     -218742.74      0             -218274.73     -160.74599    
    344700   323.95936     -218742.26      0             -218267.1       37.685283    
    344800   323.13059     -218736.37      0             -218262.43     -944.94917    
    344900   319.58444     -218733.08      0             -218264.34     -562.32375    
    345000   318.72208     -218738.94      0             -218271.46     -291.69253    
    345100   317.60505     -218739.89      0             -218274.05     -539.45907    
    345200   323.82036     -218746.43      0             -218271.47     -97.940491    
    345300   320.56228     -218738.73      0             -218268.56     -7.6644342    
    345400   322.44963     -218738.41      0             -218265.47      16.218798    
    345500   323.37063     -218736.2       0             -218261.91      408.25573    
    345600   322.97194     -218729.23      0             -218255.52      670.04304    
    345700   323.07092     -218732.13      0             -218258.28     -1104.4296    
    345800   322.26315     -218739.57      0             -218266.9      -871.61028    
    345900   320.34039     -218739.8       0             -218269.95      343.20789    
    346000   314.44327     -218732.62      0             -218271.42      478.65444    
    346100   321.67443     -218739.75      0             -218267.95      204.58626    
    346200   322.94236     -218733.26      0             -218259.6       326.4929     
    346300   322.91814     -218733.09      0             -218259.47      828.70993    
    346400   323.32563     -218740.11      0             -218265.88      269.88317    
    346500   323.51079     -218743.75      0             -218269.25     -792.30534    
    346600   319.98        -218738.97      0             -218269.65      1077.7159    
    346700   321.37021     -218737.93      0             -218266.57     -206.67605    
    346800   325.4357      -218739.59      0             -218262.27     -562.48822    
    346900   319.46757     -218729.4       0             -218260.84      222.87059    
    347000   318.61601     -218734.29      0             -218266.98     -1326.4817    
    347100   319.56944     -218741.93      0             -218273.21      184.08152    
    347200   316.2565      -218736.45      0             -218272.59     -1070.8893    
    347300   321.4913      -218737.66      0             -218266.13      459.89037    
    347400   321.18919     -218731.4       0             -218260.3      -768.73036    
    347500   320.64569     -218731.89      0             -218261.6      -482.66451    
    347600   319.50826     -218732.42      0             -218263.79     -406.1445     
    347700   323.4348      -218741.01      0             -218266.62     -944.66692    
    347800   320.18479     -218741.16      0             -218271.54      391.95983    
    347900   319.35349     -218741.56      0             -218273.16     -258.10619    
    348000   322.35191     -218741.3       0             -218268.51      413.59252    
    348100   317.00576     -218726.19      0             -218261.23      610.94138    
    348200   321.40993     -218733.43      0             -218262.01      104.00652    
    348300   318.01077     -218735.78      0             -218269.35      155.56687    
    348400   319.13458     -218741.02      0             -218272.95     -3.405618     
    348500   316.65039     -218735.53      0             -218271.09     -737.28018    
    348600   317.06985     -218733.16      0             -218268.11     -89.938855    
    348700   323.06772     -218738.43      0             -218264.58     -551.46171    
    348800   322.79516     -218736.06      0             -218262.61     -925.34336    
    348900   314.38315     -218732.41      0             -218271.3       640.37692    
    349000   317.73228     -218742.52      0             -218276.5      -210.22042    
    349100   317.78118     -218740.71      0             -218274.62     -669.56922    
    349200   320.27413     -218736.9       0             -218267.15     -1000.0181    
    349300   320.83899     -218734.06      0             -218263.48     -1637.0114    
    349400   323.19583     -218739.44      0             -218265.41      409.53729    
    349500   316.17425     -218735.62      0             -218271.88     -259.33279    
    349600   317.39547     -218743.45      0             -218277.92      56.526792    
    349700   318.45567     -218742.56      0             -218275.47     -538.04634    
    349800   320.03724     -218733.24      0             -218263.83     -88.916242    
    349900   322.30696     -218734.98      0             -218262.25     -707.87529    
    350000   321.7886      -218739.03      0             -218267.06     -1876.2207    
    350100   321.81196     -218744.49      0             -218272.48     -1125.0385    
    350200   316.2947      -218738.49      0             -218274.57     -297.64616    
    350300   319.23113     -218737.47      0             -218269.25      440.50171    
    350400   321.65201     -218733.25      0             -218261.47     -204.04041    
    350500   318.1859      -218730.9       0             -218264.21     -962.53337    
    350600   319.07878     -218736.55      0             -218268.56      151.77346    
    350700   318.53153     -218740.07      0             -218272.87     -717.21009    
    350800   313.07867     -218737.88      0             -218278.68     -407.9844     
    350900   316.80635     -218746.24      0             -218281.58     -93.968033    
    351000   320.24172     -218741.65      0             -218271.95      598.35302    
    351100   320.90446     -218736.66      0             -218265.98     -848.34259    
    351200   319.08179     -218732.63      0             -218264.63     -643.01896    
    351300   318.89479     -218734.52      0             -218266.8      -1175.2278    
    351400   316.88343     -218738.94      0             -218274.16      461.14069    
    351500   321.98164     -218747.36      0             -218275.11     -958.5677     
    351600   318.70635     -218736.46      0             -218269.01     -240.00027    
    351700   324.17443     -218735.63      0             -218260.16     -602.07589    
    351800   321.22854     -218734.06      0             -218262.91      343.7176     
    351900   318.11903     -218735.43      0             -218268.84     -1593.3602    
    352000   319.73399     -218740.97      0             -218272.01      244.43248    
    352100   318.27837     -218739.93      0             -218273.11      81.474775    
    352200   319.41582     -218733.11      0             -218264.62     -143.3791     
    352300   322.17721     -218732.98      0             -218260.44      527.18044    
    352400   324.0541      -218739.65      0             -218264.35      681.91507    
    352500   321.91894     -218742.7       0             -218270.54      797.728      
    352600   317.69909     -218738.37      0             -218272.4       682.2019     
    352700   322.00204     -218742.67      0             -218270.39     -654.29733    
    352800   319.71929     -218737.61      0             -218268.68     -1187.6992    
    352900   320.23573     -218737.61      0             -218267.91     -624.25085    
    353000   324.28458     -218740.18      0             -218264.54     -1395.6595    
    353100   322.78029     -218729.56      0             -218256.13     -1537.0188    
    353200   321.63748     -218729.16      0             -218257.41     -163.474      
    353300   317.93773     -218733.1       0             -218266.77      254.36048    
    353400   317.55476     -218735.26      0             -218269.5      -445.77982    
    353500   320.5197      -218740.72      0             -218270.61      119.18171    
    353600   319.35738     -218739.02      0             -218270.61     -239.52359    
    353700   320.15532     -218734.9       0             -218265.32      1596.2411    
    353800   325.88922     -218738.67      0             -218260.68      7.7588871    
    353900   323.67047     -218738.61      0             -218263.88     -591.54395    
    354000   314.52003     -218734.34      0             -218273.03      752.38036    
    354100   318.03284     -218740.35      0             -218273.88     -613.94199    
    354200   317.91303     -218736.33      0             -218270.04     -187.36       
    354300   322.04237     -218738.79      0             -218266.45     -1383.0032    
    354400   323.47389     -218739.14      0             -218264.7      -1275.0817    
    354500   321.43195     -218737.27      0             -218265.82     -890.91823    
    354600   320.11909     -218740.25      0             -218270.72     -961.82619    
    354700   319.33422     -218741.86      0             -218273.49     -799.04578    
    354800   316.19965     -218735.07      0             -218271.29     -157.80314    
    354900   321.63497     -218735.79      0             -218264.04      704.7358     
    355000   322.37349     -218735.19      0             -218262.36      7.4618238    
    355100   320.46861     -218737.3       0             -218267.26      817.37071    
    355200   321.21079     -218742.87      0             -218271.74     -298.93199    
    355300   318.1231      -218738.47      0             -218271.87      65.916435    
    355400   321.53732     -218742.2       0             -218270.6      -271.98771    
    355500   322.68342     -218741.31      0             -218268.03     -200.38624    
    355600   323.69252     -218736.25      0             -218261.48      76.391008    
    355700   320.0651      -218730.95      0             -218261.51     -1357.1918    
    355800   320.45581     -218742.08      0             -218272.06     -994.88589    
    355900   316.54486     -218738.64      0             -218274.36     -208.29176    
    356000   317.59324     -218737.3       0             -218271.48     -488.32548    
    356100   320.90825     -218736.25      0             -218265.57      31.347592    
    356200   324.15309     -218737.63      0             -218262.19      173.76462    
    356300   318.90881     -218737.53      0             -218269.78     -142.44633    
    356400   319.5832      -218745.39      0             -218276.65     -219.46267    
    356500   321.00669     -218745.42      0             -218274.59     -477.10932    
    356600   318.65105     -218736.38      0             -218269.01     -8.3383582    
    356700   321.32022     -218736.01      0             -218264.73     -386.55892    
    356800   323.1632      -218739.88      0             -218265.9      -74.352345    
    356900   320.23104     -218745.63      0             -218275.94     -820.27185    
    357000   316.95625     -218742.59      0             -218277.7      -6.0510061    
    357100   322.18944     -218744.32      0             -218271.76     -121.90374    
    357200   321.08437     -218738.66      0             -218267.72     -683.14863    
    357300   319.04513     -218734.52      0             -218266.57     -299.23381    
    357400   321.71953     -218740.71      0             -218268.84      413.89595    
    357500   315.23833     -218740.16      0             -218277.8      -257.20456    
    357600   316.14857     -218742.58      0             -218278.88      675.58647    
    357700   321.3818      -218742.52      0             -218271.14     -46.627347    
    357800   321.49599     -218738.96      0             -218267.41     -1089.4224    
    357900   320.89005     -218738.38      0             -218267.72     -201.75797    
    358000   322.12722     -218743.55      0             -218271.08      310.98337    
    358100   317.86323     -218742.84      0             -218276.62      375.18945    
    358200   316.90575     -218747.61      0             -218282.8       450.72467    
    358300   316.45227     -218745.14      0             -218280.99      411.55361    
    358400   322.27246     -218743.68      0             -218270.99     -426.93761    
    358500   319.91625     -218736.97      0             -218267.75     -106.89797    
    358600   320.01349     -218736.66      0             -218267.29      309.7172     
    358700   321.24579     -218738.98      0             -218267.8      -343.75027    
    358800   318.84223     -218738.48      0             -218270.83      752.83913    
    358900   318.06659     -218743.39      0             -218276.88     -588.42893    
    359000   319.39613     -218744.75      0             -218276.29      356.546      
    359100   323.10718     -218741.7       0             -218267.79     -313.05538    
    359200   321.83449     -218736.66      0             -218264.62      177.1564     
    359300   321.89567     -218739.14      0             -218267.01     -385.44905    
    359400   320.85367     -218741         0             -218270.4       24.207944    
    359500   316.02421     -218736.27      0             -218272.75      660.32125    
    359600   319.48377     -218741.36      0             -218272.77      608.103      
    359700   319.18848     -218738.22      0             -218270.06     -323.68217    
    359800   321.45193     -218737.82      0             -218266.34     -792.21422    
    359900   319.47544     -218734.12      0             -218265.54      175.37069    
    360000   314.78268     -218731.66      0             -218269.97     -682.47861    
    360100   318.21653     -218741.9       0             -218275.16     -597.42011    
    360200   317.30505     -218741.26      0             -218275.87     -491.79449    
    360300   320.26887     -218736.45      0             -218266.7       721.97161    
    360400   321.24897     -218734.2       0             -218263.02      335.18483    
    360500   323.60359     -218741.12      0             -218266.49      363.22411    
    360600   316.93635     -218737.89      0             -218273.03      265.61109    
    360700   319.20772     -218741.84      0             -218273.66      334.7875     
    360800   319.87056     -218740.69      0             -218271.53     -668.11425    
    360900   320.00928     -218738.49      0             -218269.13      20.585728    
    361000   323.31602     -218736.9       0             -218262.69     -509.57659    
    361100   322.29353     -218729.12      0             -218256.41     -87.899045    
    361200   325.4011      -218738.84      0             -218261.57     -105.87586    
    361300   319.63181     -218739.5       0             -218270.7      -330.69516    
    361400   316.77307     -218736.15      0             -218271.53     -219.2301     
    361500   320.10056     -218739.29      0             -218269.79     -995.43262    
    361600   317.2769      -218731.94      0             -218266.58     -136.02919    
    361700   326.21326     -218741.43      0             -218262.97      6.3592469    
    361800   323.05945     -218740.52      0             -218266.69     -416.91708    
    361900   315.60923     -218737.53      0             -218274.62     -149.41172    
    362000   320.19299     -218744.67      0             -218275.04     -536.30259    
    362100   317.34944     -218737.9       0             -218272.44      50.7209      
    362200   322.34869     -218735.61      0             -218262.82     -22.922185    
    362300   321.9585      -218733.28      0             -218261.06      58.265352    
    362400   322.12936     -218737.73      0             -218265.26      105.78445    
    362500   320.78953     -218741.35      0             -218270.84     -508.43081    
    362600   321.12569     -218743.79      0             -218272.79     -712.2033     
    362700   321.08636     -218742.34      0             -218271.4      -759.86032    
    362800   318.71716     -218736.16      0             -218268.7      -292.67192    
    362900   323.97709     -218733.71      0             -218258.52     -1850.3222    
    363000   318.45308     -218725.01      0             -218257.93     -1013.6913    
    363100   319.65884     -218733.84      0             -218264.99      67.853032    
    363200   319.2077      -218738.31      0             -218270.12     -803.84767    
    363300   318.30341     -218740.15      0             -218273.29     -1584.1997    
    363400   320.19112     -218742.5       0             -218272.87     -325.02568    
    363500   323.13225     -218740.13      0             -218266.19      221.42836    
    363600   323.49474     -218733.72      0             -218259.25      1094.0579    
    363700   322.85812     -218737.17      0             -218263.63      1209.4731    
    363800   320.45961     -218738.7       0             -218268.68     -46.85348     
    363900   320.95883     -218741         0             -218270.24     -767.47388    
    364000   318.4266      -218738.86      0             -218271.82     -991.95997    
    364100   317.9451      -218740.39      0             -218274.06      444.35805    
    364200   316.36157     -218739.25      0             -218275.24     -1696.9871    
    364300   319.78518     -218740.06      0             -218271.02     -344.36634    
    364400   323.06638     -218739.08      0             -218265.23     -902.39931    
    364500   325.8589      -218741.88      0             -218263.93     -717.46732    
    364600   321.71839     -218742.72      0             -218270.85      949.53375    
    364700   322.28072     -218749.65      0             -218276.95      88.873782    
    364800   320.21932     -218745.22      0             -218275.55     -35.68986     
    364900   320.12676     -218740.26      0             -218270.73      427.72035    
    365000   320.31823     -218738.83      0             -218269.01     -308.26506    
    365100   318.8088      -218736.83      0             -218269.23      258.968      
    365200   318.21721     -218736.28      0             -218269.55      756.29843    
    365300   320.2995      -218739.7       0             -218269.92     -548.45124    
    365400   318.5815      -218737.96      0             -218270.69      46.161791    
    365500   321.69577     -218740.94      0             -218269.11     -1300.9032    
    365600   324.02736     -218740.57      0             -218265.32     -40.296846    
    365700   325.6265      -218739.66      0             -218262.05     -472.08384    
    365800   318.1517      -218733.96      0             -218267.33     -675.63445    
    365900   318.83548     -218741.99      0             -218274.35     -84.874493    
    366000   319.28175     -218744.07      0             -218275.77     -95.535614    
    366100   319.79677     -218741.79      0             -218272.74     -376.40171    
    366200   320.15336     -218739.38      0             -218269.81      267.65128    
    366300   317.98754     -218735.98      0             -218269.59     -9.1993473    
    366400   319.03179     -218737.94      0             -218270.02      938.33827    
    366500   322.07275     -218741.55      0             -218269.16      430.489      
    366600   319.44326     -218737.09      0             -218268.56     -621.88743    
    366700   319.44747     -218739.43      0             -218270.89     -347.97973    
    366800   319.04745     -218742.62      0             -218274.67     -1097.3883    
    366900   316.54556     -218739.99      0             -218275.71     -749.56778    
    367000   319.96548     -218739.22      0             -218269.93      173.47027    
    367100   321.2206      -218734.43      0             -218263.29     -1589.3787    
    367200   319.05804     -218732.56      0             -218264.59     -317.41307    
    367300   320.66211     -218739.26      0             -218268.94      119.85833    
    367400   322.54667     -218743.3       0             -218270.21      376.11563    
    367500   321.05192     -218741.54      0             -218270.65     -142.43807    
    367600   320.26507     -218741.05      0             -218271.31      289.26128    
    367700   321.01563     -218740.23      0             -218269.39      1299.2658    
    367800   322.9185      -218738.14      0             -218264.52     -463.19498    
    367900   323.03158     -218736.39      0             -218262.6      -982.22613    
    368000   324.71499     -218744.96      0             -218268.7      -556.94351    
    368005   324.5222      -218745.27      0             -218269.29     -897.79172    
Loop time of 3583.96 on 8 procs for 345000 steps with 11348 atoms

Performance: 8.317 ns/day, 2.886 hours/ns, 96.262 timesteps/s
96.4% CPU use with 8 MPI tasks x 1 OpenMP threads

MPI task timing breakdown:
Section |  min time  |  avg time  |  max time  |%varavg| %total
---------------------------------------------------------------
Pair    | 1143.5     | 1180.7     | 1215.7     |  63.1 | 32.94
Kspace  | 2053.6     | 2090.1     | 2127.8     |  49.8 | 58.32
Neigh   | 134.32     | 138.07     | 141.56     |  20.4 |  3.85
Comm    | 113.71     | 116.49     | 119.36     |  17.2 |  3.25
Output  | 7.1828     | 7.4684     | 7.5132     |   4.0 |  0.21
Modify  | 36.382     | 37.034     | 37.686     |   6.1 |  1.03
Other   |            | 14.06      |            |       |  0.39

Nlocal:         1418.5 ave        1433 max        1403 min
Histogram: 1 0 2 0 1 1 0 0 2 1
Nghost:        3906.12 ave        3926 max        3887 min
Histogram: 1 0 2 1 1 0 0 1 1 1
Neighs:         105255 ave      109549 max      102924 min
Histogram: 2 0 1 3 1 0 0 0 0 1

Total # of neighbors = 842037
Ave neighs/atom = 74.201357
Neighbor list builds = 52185
Dangerous builds = 0

undump              1
unfix               1
unfix               RDF
uncompute           myRDF

print "Temp = ${Tmp}"
Temp = 320

variable Tmp delete
next a
jump SELF loop_start
print "loop body"
loop body
variable Tmp equal (${a}-1)*5+300
variable Tmp equal (6-1)*5+300

reset_timestep 0

velocity	all create 0.00001 87287

pair_style buck/coul/long 8.0
pair_coeff 1 1 0.0        1.0      0.0
pair_coeff 2 2 2029.2204  0.343645 192.58000
pair_coeff 3 3 0.0        1.0      0.0
pair_coeff 4 4 0.0        1.0      0.0
pair_coeff 1 2 41051.9380 0.151160 0.0000
pair_coeff 1 3 0.0        1.0      0.0
pair_coeff 1 4 0.0        1.0      0.0
pair_coeff 2 3 26655.4720 0.181968 86.5860
pair_coeff 2 4 17943.3840 0.226627 127.6500
pair_coeff 3 4 0.0        1.0      0.0
kspace_style pppm 1.0e-4

neighbor	0.3 bin
neigh_modify	every 1 delay 0 check yes

log log.lammps00_${Tmp}
log log.lammps00_325
