
timestep 0.001

min_style cg
minimize 1.0e-4 1.0e-6 1000 10000
PPPM initialization ...
WARNING: System is not charge neutral, net charge = -578.4 (src/kspace.cpp:327)
  using 12-bit tables for long-range coulomb (src/kspace.cpp:342)
  G vector (1/distance) = 0.37055127
  grid = 54 48 64
  stencil order = 5
  estimated absolute RMS force accuracy = 0.0016960099
  estimated relative force accuracy = 0.00011778137
  using double precision FFTW3
  3d grid and FFT values/proc = 34336 20736
Generated 0 of 6 mixed pair_coeff terms from geometric mixing rule
Neighbor list info ...
  update every 1 steps, delay 0 steps, check yes
  max neighbors/atom: 2000, page size: 100000
  master list distance cutoff = 8.3
  ghost atom cutoff = 8.3
  binsize = 4.15, bins = 14 12 17
  1 neighbor lists, perpetual/occasional/extra = 1 0 0
  (1) pair buck/coul/long, perpetual
      attributes: half, newton on
      pair build: half/bin/atomonly/newton
      stencil: half/bin/3d
      bin: standard
Per MPI rank memory allocation (min/avg/max) = 8.306 | 8.307 | 8.308 Mbytes
   Step          Temp          E_pair         E_mol          TotEng         Press     
         0   1e-05         -205933.95      0             -205933.95     -12442.935    
        59   1e-05         -215914.48      0             -215914.48      18449.422    
Loop time of 0.780378 on 8 procs for 59 steps with 11348 atoms

95.5% CPU use with 8 MPI tasks x 1 OpenMP threads

Minimization stats:
  Stopping criterion = energy tolerance
  Energy initial, next-to-last, final = 
     -205933.949285199  -215897.213205877  -215914.483792237
  Force two-norm initial, final = 987.75061 54.804557
  Force max component initial, final = 22.129511 8.6729852
  Final line search alpha, max atom move = 0.0092635948 0.080343021
  Iterations, force evaluations = 59 67

MPI task timing breakdown:
Section |  min time  |  avg time  |  max time  |%varavg| %total
---------------------------------------------------------------
Pair    | 0.23248    | 0.26975    | 0.29688    |   3.3 | 34.57
Kspace  | 0.38436    | 0.41576    | 0.45924    |   3.0 | 53.28
Neigh   | 0.06649    | 0.072347   | 0.076389   |   1.0 |  9.27
Comm    | 0.014638   | 0.014928   | 0.015117   |   0.1 |  1.91
Output  | 0          | 0          | 0          |   0.0 |  0.00
Modify  | 0          | 0          | 0          |   0.0 |  0.00
Other   |            | 0.007588   |            |       |  0.97

Nlocal:         1418.5 ave        1422 max        1414 min
Histogram: 2 0 0 0 0 2 0 2 0 2
Nghost:         4090.5 ave        4102 max        4081 min
Histogram: 4 0 0 0 0 0 0 2 0 2
Neighs:         106739 ave      110465 max      102768 min
Histogram: 1 1 0 1 1 0 1 1 1 1

Total # of neighbors = 853910
Ave neighs/atom = 75.247621
Neighbor list builds = 29
Dangerous builds = 0

fix                 1 all npt temp ${Tmp} ${Tmp} 0.1 iso 1.0 1.0 1.0
fix                 1 all npt temp 300 ${Tmp} 0.1 iso 1.0 1.0 1.0
fix                 1 all npt temp 300 300 0.1 iso 1.0 1.0 1.0
dump                1 all atom 100 dump00_${Tmp}.adp
dump                1 all atom 100 dump00_300.adp
thermo              100
run                 23000
PPPM initialization ...
  using 12-bit tables for long-range coulomb (src/kspace.cpp:342)
  G vector (1/distance) = 0.37055127
  grid = 54 48 64
  stencil order = 5
  estimated absolute RMS force accuracy = 0.0016960099
  estimated relative force accuracy = 0.00011778137
  using double precision FFTW3
  3d grid and FFT values/proc = 34336 20736
Generated 0 of 6 mixed pair_coeff terms from geometric mixing rule
Per MPI rank memory allocation (min/avg/max) = 7.181 | 7.182 | 7.183 Mbytes
   Step          Temp          E_pair         E_mol          TotEng         Press          Volume    
        59   1e-05         -215914.48      0             -215914.48      18449.422      181806.46    
       100   288.4654      -216340.36      0             -215917.26      8359.8265      184395.03    
       200   603.22916     -216923.5       0             -216038.74     -2107.8217      189667.4     
       300   616.94985     -217205.1       0             -216300.21      3082.995       190013.61    
       400   586.72465     -217452.8       0             -216592.25      1539.9823      192108.73    
       500   532.25907     -217640.26      0             -216859.59      2346.9813      195093.78    
       600   492.57733     -217814.92      0             -217092.45     -280.29855      197474.51    
       700   428.72688     -217923.74      0             -217294.92     -285.3588       198530.63    
       800   393.55748     -218033.71      0             -217456.47     -122.84015      199510.51    
       900   360.37148     -218116.58      0             -217588.02      1154.9642      199753.33    
      1000   325.34792     -218164.69      0             -217687.49     -37.049551      199815.63    
      1100   308.78807     -218217.47      0             -217764.57     -724.83214      199775.23    
      1200   298.37893     -218259.58      0             -217821.94     -1288.4275      198868.73    
      1300   295.45484     -218291.16      0             -217857.81     -48.841114      197907.8     
      1400   296.47863     -218315.97      0             -217881.12      619.77235      196683.56    
      1500   295.13441     -218324.02      0             -217891.14     -1180.2436      195538.03    
      1600   298.71224     -218330.26      0             -217892.13     -327.13014      194075.16    
      1700   302.50609     -218334.21      0             -217890.52      394.55232      193168.62    
      1800   303.24137     -218341.71      0             -217896.94     -581.02984      192700.28    
      1900   299.40633     -218349.33      0             -217910.19     -42.439008      192365.44    
      2000   299.98908     -218358.73      0             -217918.73      512.35571      192252.13    
      2100   302.19166     -218371.14      0             -217927.91      366.87568      192278.42    
      2200   300.47799     -218383.28      0             -217942.57      724.95623      192679.15    
      2300   297.30214     -218390.29      0             -217954.23     -125.44388      193529.61    
      2400   298.73269     -218396.93      0             -217958.77      148.589        194168.65    
      2500   297.49661     -218393.87      0             -217957.53      896.44596      194920.21    
      2600   305.17818     -218402.07      0             -217954.46      384.9002       195698.67    
      2700   307.39417     -218414.9       0             -217964.04     -787.62466      196276.62    
      2800   301.29409     -218426.91      0             -217984.99      737.23081      196210.69    
      2900   297.36518     -218441.28      0             -218005.13     -892.51818      196350.43    
      3000   292.39184     -218446.83      0             -218017.97      792.57625      195806.14    
      3100   299.69804     -218450.34      0             -218010.77     -153.11784      195872.71    
      3200   303.13447     -218445.64      0             -218001.03     -558.03134      195596.89    
      3300   302.0215      -218445.71      0             -218002.73      1077.3049      194768.36    
      3400   302.36795     -218457.94      0             -218014.45     -161.6318       194584.51    
      3500   297.14433     -218470.18      0             -218034.35     -817.95605      194037.2     
      3600   291.12489     -218473.34      0             -218046.34     -802.35468      193380.31    
      3700   295.25116     -218477.99      0             -218044.94      130.13686      193014.99    
      3800   302.94702     -218480.6       0             -218036.27      1085.4499      192757.25    
      3900   301.24962     -218476.35      0             -218034.5      -528.74266      192847.21    
      4000   300.92276     -218482.4       0             -218041.03      657.28292      192786.1     
      4100   296.2895      -218484.04      0             -218049.46      121.18312      193249.21    
      4200   297.22078     -218492.32      0             -218056.38     -545.24723      193628.52    
      4300   297.81403     -218494.67      0             -218057.86      177.2832       193987.2     
      4400   298.0899      -218492.65      0             -218055.44      566.38307      194442.9     
      4500   304.15117     -218498.41      0             -218052.31      97.363761      194597.12    
      4600   303.27525     -218495.84      0             -218051.03      338.9398       194861.91    
      4700   301.06334     -218495.71      0             -218054.14      560.24922      194857.57    
      4800   297.43681     -218495.69      0             -218059.43      125.04891      194766.82    
      4900   301.69974     -218504.46      0             -218061.96     -822.63058      194672.84    
      5000   296.68543     -218498.66      0             -218063.51      154.67201      194522.29    
      5100   299.5081      -218502.49      0             -218063.19      735.93729      194155.69    
      5200   300.53868     -218508.26      0             -218067.45      67.173364      193818.62    
      5300   298.28125     -218512.2       0             -218074.71     -118.63179      193560.93    
      5400   296.87251     -218516.57      0             -218081.14      681.55824      193210.23    
      5500   299.36084     -218521.56      0             -218082.48     -159.95852      193115.16    
      5600   300.30368     -218522.2       0             -218081.74     -223.01506      192837.45    
      5700   303.77501     -218528.77      0             -218083.22     -631.54724      192489.6     
      5800   302.04938     -218531.83      0             -218088.81      574.15162      192408.65    
      5900   298.34886     -218531.14      0             -218093.54      519.06049      192797.45    
      6000   297.61816     -218532.3       0             -218095.78     -346.28779      192995.29    
      6100   301.10651     -218535.53      0             -218093.89     -756.07758      193324.89    
      6200   302.9047      -218538.44      0             -218094.16     -110.24972      193421.26    
      6300   302.17587     -218538.91      0             -218095.7       169.46297      193680.13    
      6400   302.81565     -218544.28      0             -218100.14      199.86099      193946.79    
      6500   300.85102     -218548.76      0             -218107.5       190.82138      193983.85    
      6600   299.69115     -218549.08      0             -218109.51      675.58996      193986.65    
      6700   301.36861     -218548.17      0             -218106.15      404.55802      193908.59    
      6800   298.80763     -218541.15      0             -218102.88     -825.35086      193886.11    
      6900   302.32122     -218547.4       0             -218103.98     -288.68823      193794.78    
      7000   301.46106     -218555.62      0             -218113.46      486.36117      193411.26    
      7100   296.35592     -218554.73      0             -218120.06     -639.39262      193666.67    
      7200   299.97685     -218561.3       0             -218121.32      1044.6186      193099.94    
      7300   299.67032     -218555.23      0             -218115.7       88.130311      193266.44    
      7400   300.14645     -218552.99      0             -218112.76      1336.045       193080.28    
      7500   301.14434     -218556.12      0             -218114.42     -322.44376      193268.36    
      7600   298.72603     -218559.74      0             -218121.59      189.75228      193063.73    
      7700   298.92927     -218566.49      0             -218128.04      1580.5076      192862.83    
      7800   301.30169     -218570.75      0             -218128.82     -266.21103      193193.48    
      7900   299.42165     -218568.4       0             -218129.23      584.98768      192918.14    
      8000   301.92253     -218568.42      0             -218125.59     -318.09298      193228.81    
      8100   301.22419     -218564.45      0             -218122.64     -794.30245      193413.63    
      8200   301.28924     -218566.67      0             -218124.76      526.02762      193186.32    
      8300   299.62895     -218567.15      0             -218127.68     -862.47695      193466.64    
      8400   297.27991     -218567.61      0             -218131.59     -464.73924      193250.18    
      8500   298.47182     -218568.06      0             -218130.29      290.42578      193431.71    
      8600   303.18601     -218573.69      0             -218129         1191.5465      193127.42    
      8700   299.88881     -218571.1       0             -218131.25     -527.15707      193344.53    
      8800   299.86179     -218576.66      0             -218136.84      120.39127      193197.63    
      8900   295.73514     -218576.12      0             -218142.36      393.30733      192819.84    
      9000   295.67087     -218573.27      0             -218139.61     -297.74408      192803.19    
      9100   301.99067     -218575.47      0             -218132.54     -663.2632       192788.82    
      9200   300.21235     -218572.21      0             -218131.89      165.37499      192768.84    
      9300   299.91879     -218577.04      0             -218137.15     -249.53962      192891.98    
      9400   299.86377     -218583.11      0             -218143.29      460.97381      192673.81    
      9500   296.83154     -218580.57      0             -218145.21     -252.27736      192865.12    
      9600   299.89541     -218581.6       0             -218141.73      609.75588      192692.82    
      9700   302.74566     -218579.11      0             -218135.07      69.047116      192706.39    
      9800   303.50286     -218577.95      0             -218132.8       480.3717       192894.48    
      9900   300.21624     -218578.51      0             -218138.18      757.70491      192997.21    
     10000   297.6196      -218583.83      0             -218147.3       784.25346      193132.97    
     10100   295.1811      -218584.12      0             -218151.18      224.27934      193296.66    
     10200   295.69631     -218580.22      0             -218146.52      411.95676      193276.39    
     10300   298.99629     -218576.19      0             -218137.65      564.01816      193288.29    
     10400   299.83908     -218572.58      0             -218132.8       50.337906      193221.64    
     10500   303.76845     -218582.98      0             -218137.43     -157.01719      192968.97    
     10600   301.7112      -218591.33      0             -218148.81     -268.56503      193180.53    
     10700   297.09315     -218594         0             -218158.25      502.32034      192865.83    
     10800   298.04303     -218593.7       0             -218156.55     -637.6465       192832.54    
     10900   301.36944     -218590.02      0             -218148         66.115601      192877.21    
     11000   303.77404     -218585.4       0             -218139.85     -1191.4446      193147.35    
     11100   305.70366     -218588.84      0             -218140.46      518.40349      192998.99    
     11200   300.21263     -218588.22      0             -218147.89      862.29108      192831.31    
     11300   297.01129     -218590.74      0             -218155.11      273.97827      192844.17    
     11400   297.068       -218590.72      0             -218155.01      233.09854      192854.86    
     11500   302.53717     -218591.8       0             -218148.07      48.147707      192906.53    
     11600   306.97829     -218591.41      0             -218141.16      514.04974      192943.87    
     11700   302.50033     -218583.41      0             -218139.73      282.44397      193064.01    
     11800   299.63105     -218586.48      0             -218147.01      98.461477      193122.91    
     11900   297.59775     -218592.36      0             -218155.86      226.57146      193005.82    
     12000   295.13365     -218590.98      0             -218158.1       393.029        193204.92    
     12100   299.6132      -218592.19      0             -218152.74     -404.83447      193374.99    
     12200   303.42554     -218588.41      0             -218143.37     -216.2063       193576.92    
     12300   300.89863     -218581.68      0             -218140.35      639.5876       193481.22    
     12400   302.56303     -218589.01      0             -218145.24     -191.83258      193296.3     
     12500   298.45784     -218591.61      0             -218153.85     -751.49602      193519.71    
     12600   300.37671     -218599.56      0             -218158.99     -1740.5422      193601.76    
     12700   297.37017     -218594.42      0             -218158.26      55.897706      192905.4     
     12800   301.90818     -218591.54      0             -218148.73      325.34485      192867.6     
     12900   300.89057     -218584.01      0             -218142.69     -1078.1983      193112.59    
     13000   305.164       -218594.67      0             -218147.08      1642.855       192819.95    
     13100   299.1486      -218594.84      0             -218156.07      1020.1291      192871.1     
     13200   294.39554     -218592.43      0             -218160.64     -108.66035      192993.03    
     13300   300.1429      -218601.11      0             -218160.89      969.394        192875.72    
     13400   298.81167     -218592.71      0             -218154.44      321.60444      192906.81    
     13500   302.15862     -218590.38      0             -218147.2       223.26977      192991.52    
     13600   302.71448     -218589.8       0             -218145.81      822.63249      193153.71    
     13700   301.12023     -218593.73      0             -218152.07      1187.02        193110.9     
     13800   297.18015     -218596.87      0             -218160.99      17.252117      193160.29    
     13900   299.91616     -218603.53      0             -218163.63     -110.29092      193106.99    
     14000   297.51108     -218594.3       0             -218157.93      241.81417      193174.47    
     14100   298.0168      -218586.39      0             -218149.29     -242.72363      193246.31    
     14200   304.74467     -218591.41      0             -218144.44      1.6293953      193252.67    
     14300   302.26727     -218593.16      0             -218149.82      580.7087       193175.61    
     14400   295.38409     -218594.2       0             -218160.95      728.17124      193086.18    
     14500   298.53803     -218603.44      0             -218165.57     -549.09108      193300.63    
     14600   297.56978     -218600.32      0             -218163.87      52.554643      192930.54    
     14700   300.28128     -218596.68      0             -218156.25      948.75614      192805.29    
     14800   303.35196     -218593.51      0             -218148.58     -636.94314      193050.87    
     14900   302.50231     -218594.52      0             -218150.84      2031.5415      192450.57    
     15000   298.84991     -218596.25      0             -218157.92      62.295666      192766.28    
     15100   298.95993     -218603.21      0             -218164.72     -726.09085      192771.12    
     15200   296.71677     -218601.04      0             -218165.84     -40.952167      192751.27    
     15300   297.46602     -218597.34      0             -218161.04      793.18838      192570.87    
     15400   304.62224     -218599.42      0             -218152.63     -969.67764      192901.82    
     15500   300.98225     -218591.43      0             -218149.98      1005.0497      192767.18    
     15600   302.775       -218596.45      0             -218152.36     -141.36987      193092.02    
     15700   298.78458     -218600.1       0             -218161.86      846.19559      192954.76    
     15800   297.09652     -218600.96      0             -218165.21      466.87682      193147.63    
     15900   297.09322     -218598.47      0             -218162.71     -189.6586       193157.38    
     16000   301.86808     -218600.43      0             -218157.67      806.21273      192808.46    
     16100   301.8195      -218595.94      0             -218153.26      380.44388      192845.6     
     16200   301.36697     -218595.64      0             -218153.62     -85.547846      193120.63    
     16300   299.42518     -218599.38      0             -218160.21      248.62317      192764.18    
     16400   301.94995     -218606.98      0             -218164.1      -507.28585      192842.29    
     16500   299.47545     -218602.63      0             -218163.38      191.03236      192845.77    
     16600   300.65754     -218600.6       0             -218159.62      122.70404      192611.14    
     16700   301.35736     -218599.49      0             -218157.49      1091.5461      192483.7     
     16800   300.65878     -218599.98      0             -218158.99      811.256        192227.15    
     16900   298.68988     -218599.07      0             -218160.97      252.60241      192537.85    
     17000   301.38992     -218605.44      0             -218163.38      998.6545       192469.99    
     17100   298.01774     -218600.63      0             -218163.52      675.55186      192416.33    
     17200   298.71105     -218598.64      0             -218160.52     -686.83267      192841.56    
     17300   299.52105     -218598.9       0             -218159.58      1155.3802      192331.94    
     17400   299.10198     -218596.96      0             -218158.27     -473.55119      192549.45    
     17500   300.07954     -218599.69      0             -218159.56     -573.11336      192706.02    
     17600   298.74478     -218599.86      0             -218161.69     -699.90557      192834.31    
     17700   298.71021     -218601.55      0             -218163.43      596.32917      192669.61    
     17800   300.18881     -218603.97      0             -218163.68     -481.65997      192849.26    
     17900   297.30584     -218599.46      0             -218163.4       391.58634      192901.8     
     18000   298.38235     -218598.53      0             -218160.89     -596.52516      192899.36    
     18100   303.31702     -218602.32      0             -218157.44     -129.73226      192791.46    
     18200   305.54106     -218605.09      0             -218156.95     -185.78678      192848.4     
     18300   298.02457     -218598.38      0             -218161.26      486.27704      192827.23    
     18400   302.78364     -218608.92      0             -218164.82     -279.48527      192844.1     
     18500   300.3805      -218606.78      0             -218166.2      -543.19391      192774.99    
     18600   300.97742     -218603.71      0             -218162.26     -274.39766      192660.39    
     18700   301.87068     -218599.81      0             -218157.05     -705.04291      192858.93    
     18800   302.16377     -218601.95      0             -218158.76     -233.93381      192557.56    
     18900   301.41231     -218604.32      0             -218162.24     -1030.5079      192752.45    
     19000   299.73951     -218606.51      0             -218166.88     -371.2645       192680.13    
     19100   295.30403     -218601.9       0             -218168.77      831.03547      192472.81    
     19200   298.55654     -218602.71      0             -218164.81      1237.2726      192806.19    
     19300   300.94981     -218601.9       0             -218160.49      1211.8023      192758.38    
     19400   300.6657      -218598.25      0             -218157.26     -511.10386      193032.23    
     19500   301.46898     -218601.58      0             -218159.41     -913.4773       193079.36    
     19600   299.97179     -218603.78      0             -218163.81      564.21935      192846.71    
     19700   298.98702     -218605.44      0             -218166.91     -468.60761      192813.89    
     19800   299.1712      -218605.75      0             -218166.95      488.14147      192870.73    
     19900   300.23168     -218602.59      0             -218162.23      748.05762      192873.73    
     20000   298.17959     -218596.68      0             -218159.33      197.16722      192849.34    
     20100   304.28204     -218605.16      0             -218158.86     -368.49052      192888.41    
     20200   303.16881     -218606.18      0             -218161.52      550.27264      192593.78    
     20300   298.97761     -218602.81      0             -218164.3      -636.86822      192853.69    
     20400   299.85292     -218606.75      0             -218166.95     -295.82803      192746.25    
     20500   297.38992     -218602.87      0             -218166.69      237.15868      192669.59    
     20600   301.95155     -218606.07      0             -218163.19      256.10657      192635.13    
     20700   299.79005     -218599.35      0             -218159.64     -728.91833      192800.84    
     20800   300.55872     -218600.24      0             -218159.4       138.05434      192832.43    
     20900   299.32022     -218600.8       0             -218161.78     -151.77162      192976.85    
     21000   299.65309     -218605.67      0             -218166.16      362.51348      192760.54    
     21100   297.47913     -218602.64      0             -218166.33      113.77354      193124.56    
     21200   298.98782     -218602.72      0             -218164.19      706.47881      192845.08    
     21300   299.70301     -218599.83      0             -218160.25     -481.86013      192960.43    
     21400   301.19869     -218600.96      0             -218159.18     -339.51964      192984.13    
     21500   301.21308     -218603.32      0             -218161.52     -253.99052      192774.2     
     21600   298.98593     -218604.23      0             -218165.7       611.46623      192679.62    
     21700   297.85362     -218605.46      0             -218168.59      735.83158      192714.52    
     21800   296.6766      -218603.18      0             -218168.04      973.86059      192682.63    
     21900   300.23332     -218603.97      0             -218163.62      273.5565       192950.03    
     22000   302.25584     -218605.51      0             -218162.19      904.79936      192889.25    
     22100   302.8335      -218606.32      0             -218162.15     -127.51047      192959.04    
     22200   302.75838     -218609.1       0             -218165.04      460.56444      192758.83    
     22300   301.21138     -218608.17      0             -218166.38     -1066.4961      193238.53    
     22400   299.20009     -218606.16      0             -218167.32     -443.7778       192932.63    
     22500   303.10767     -218608.5       0             -218163.93     -735.598        193029.52    
     22600   302.15365     -218604.61      0             -218161.43      994.04455      192918.98    
     22700   299.93399     -218601.53      0             -218161.62      303.6933       193066.06    
     22800   300.10285     -218607.26      0             -218167.09     -196.00863      193022.66    
     22900   300.26027     -218611.87      0             -218171.47      549.94672      193049.24    
     23000   296.85866     -218607.64      0             -218172.23      1175.7905      192779.52    
     23059   297.67401     -218605.92      0             -218169.32      187.10277      192782.64    
Loop time of 297.566 on 8 procs for 23000 steps with 11348 atoms

Performance: 6.678 ns/day, 3.594 hours/ns, 77.294 timesteps/s
97.1% CPU use with 8 MPI tasks x 1 OpenMP threads

MPI task timing breakdown:
Section |  min time  |  avg time  |  max time  |%varavg| %total
---------------------------------------------------------------
Pair    | 70.714     | 73.723     | 75.36      |  19.5 | 24.78
Kspace  | 139.54     | 141.35     | 144.6      |  14.9 | 47.50
Neigh   | 10.01      | 10.243     | 10.447     |   4.4 |  3.44
Comm    | 4.3817     | 4.3982     | 4.4136     |   0.5 |  1.48
Output  | 0.32865    | 0.32985    | 0.33765    |   0.5 |  0.11
Modify  | 52.679     | 54.007     | 55.388     |  11.4 | 18.15
Other   |            | 13.51      |            |       |  4.54

Nlocal:         1418.5 ave        1432 max        1403 min
Histogram: 2 0 0 0 1 1 2 0 0 2
Nghost:        3867.38 ave        3894 max        3844 min
Histogram: 1 1 1 1 0 0 2 1 0 1
Neighs:         104904 ave      108153 max      102585 min
Histogram: 2 0 1 1 1 1 0 1 0 1

Total # of neighbors = 839229
Ave neighs/atom = 73.953913
Neighbor list builds = 4008
Dangerous builds = 0
unfix 1

timestep 0.001
fix                 1 all nvt temp ${Tmp} ${Tmp} 0.1
fix                 1 all nvt temp 300 ${Tmp} 0.1
fix                 1 all nvt temp 300 300 0.1
compute             myRDF all rdf 100
fix                 RDF all ave/time 100 1 100 c_myRDF[*] file lammps00_${Tmp}.rdf mode vector
fix                 RDF all ave/time 100 1 100 c_myRDF[*] file lammps00_300.rdf mode vector
run                 345000
PPPM initialization ...
  using 12-bit tables for long-range coulomb (src/kspace.cpp:342)
  G vector (1/distance) = 0.3685921
  grid = 54 48 64
  stencil order = 5
  estimated absolute RMS force accuracy = 0.0018012891
  estimated relative force accuracy = 0.0001250926
  using double precision FFTW3
  3d grid and FFT values/proc = 34336 20736
Generated 0 of 6 mixed pair_coeff terms from geometric mixing rule
Neighbor list info ...
  update every 1 steps, delay 0 steps, check yes
  max neighbors/atom: 2000, page size: 100000
  master list distance cutoff = 8.3
  ghost atom cutoff = 8.3
  binsize = 4.15, bins = 14 12 18
  2 neighbor lists, perpetual/occasional/extra = 1 1 0
  (1) pair buck/coul/long, perpetual
      attributes: half, newton on
      pair build: half/bin/atomonly/newton
      stencil: half/bin/3d
      bin: standard
  (2) compute rdf, occasional, copy from (1)
      attributes: half, newton on
      pair build: copy
      stencil: none
      bin: none
Per MPI rank memory allocation (min/avg/max) = 8.235 | 8.236 | 8.237 Mbytes
   Step          Temp          E_pair         E_mol          TotEng         Press     
     23059   297.67401     -218605.9       0             -218169.3       213.22493    
     23100   301.33594     -218611.11      0             -218169.14      968.97837    
     23200   301.28457     -218611.02      0             -218169.12      55.286853    
     23300   297.49102     -218606.92      0             -218170.58      54.982582    
     23400   300.75709     -218610.35      0             -218169.22     -275.55289    
     23500   300.52921     -218605.2       0             -218164.41     -140.76799    
     23600   301.72575     -218602.96      0             -218160.41      208.04223    
     23700   300.5093      -218603.86      0             -218163.1      -871.5768     
     23800   299.58579     -218612.59      0             -218173.18     -309.60585    
     23900   296.09339     -218608.87      0             -218174.58     -161.91311    
     24000   299.76932     -218610.1       0             -218170.42     -576.33558    
     24100   299.63468     -218605.31      0             -218165.83      497.27259    
     24200   300.39121     -218604.87      0             -218164.28      814.45452    
     24300   298.93595     -218607.19      0             -218168.74      746.95611    
     24400   297.74317     -218613.19      0             -218176.48     -78.057462    
     24500   299.69607     -218614.34      0             -218174.77      443.14297    
     24600   300.8953      -218610.05      0             -218168.72     -254.14447    
     24700   301.61115     -218607.04      0             -218164.66     -488.00397    
     24800   301.28067     -218606.9       0             -218165         57.666052    
     24900   299.29362     -218607.53      0             -218168.56     -1121.9344    
     25000   301.90579     -218612.54      0             -218169.73      9.6839253    
     25100   299.57445     -218608.94      0             -218169.55      746.98558    
     25200   299.25249     -218606.91      0             -218167.99      362.34916    
     25300   299.55421     -218607.05      0             -218167.69      3.9123426    
     25400   300.60416     -218613.66      0             -218172.76      314.45262    
     25500   296.67817     -218612.04      0             -218176.9       514.86369    
     25600   296.54344     -218610.29      0             -218175.35     -605.09325    
     25700   303.20084     -218612.09      0             -218167.38      150.58053    
     25800   301.56744     -218607.3       0             -218164.99      471.84745    
     25900   303.34244     -218613.51      0             -218168.59      275.33465    
     26000   299.77136     -218611.6       0             -218171.92      578.2523     
     26100   301.63933     -218615.26      0             -218172.84      210.32381    
     26200   298.95555     -218611.12      0             -218172.64     -1.7187031    
     26300   301.69869     -218615.98      0             -218173.47     -110.74868    
     26400   299.70781     -218616.71      0             -218177.12      794.14248    
     26500   296.10157     -218611.59      0             -218177.3      -611.88269    
     26600   299.23678     -218610.97      0             -218172.08     -745.60338    
     26700   304.12275     -218613.73      0             -218167.67     -539.51012    
     26800   302.56988     -218613.01      0             -218169.22      801.84427    
     26900   299.49155     -218617.35      0             -218178.08     -689.15132    
     27000   297.54087     -218617.16      0             -218180.76     -737.25785    
     27100   297.13636     -218613.92      0             -218178.11     -1190.8037    
     27200   300.44407     -218613.33      0             -218172.66      967.58385    
     27300   299.40472     -218609.78      0             -218170.64     -62.200573    
     27400   299.42309     -218609.47      0             -218170.3       208.0754     
     27500   297.02146     -218611.54      0             -218175.9       573.87708    
     27600   298.09087     -218618.42      0             -218181.21      153.09834    
     27700   299.99034     -218618.3       0             -218178.3      -195.64252    
     27800   299.83198     -218611.02      0             -218171.25     -939.35513    
     27900   302.75498     -218613.99      0             -218169.93     -1361.7496    
     28000   298.15037     -218608.94      0             -218171.64     -865.84156    
     28100   299.19503     -218615.23      0             -218176.39     -105.21303    
     28200   295.80718     -218618.68      0             -218184.82      803.01406    
     28300   294.01445     -218615.97      0             -218184.74      695.14721    
     28400   297.6082      -218616.95      0             -218180.44      557.29119    
     28500   296.5908      -218611.12      0             -218176.1      -838.01848    
     28600   299.80891     -218611.67      0             -218171.94     -678.12885    
     28700   300.81782     -218612.57      0             -218171.35     -150.31415    
     28800   302.57336     -218620.13      0             -218176.34     -249.19444    
     28900   299.16046     -218622.08      0             -218183.29     -349.94979    
     29000   296.24786     -218615.6       0             -218181.09      378.69663    
     29100   300.92117     -218615.71      0             -218174.34      258.46079    
     29200   301.60416     -218614.87      0             -218172.5       227.88515    
     29300   299.37835     -218613.68      0             -218174.58      665.6341     
     29400   299.93527     -218616.9       0             -218176.98      220.18045    
     29500   294.83874     -218616.68      0             -218184.24     -268.47992    
     29600   297.29626     -218622.4       0             -218186.35     -475.94986    
     29700   298.51469     -218616.5       0             -218178.67     -520.0262     
     29800   301.97342     -218617.22      0             -218174.31     -543.03396    
     29900   300.49391     -218614.5       0             -218173.76     -182.82314    
     30000   302.36655     -218618.51      0             -218175.02     -858.88385    
     30100   298.87565     -218617.86      0             -218179.49     -973.88438    
     30200   297.11734     -218618.54      0             -218182.75      222.8487     
     30300   300.43552     -218619.59      0             -218178.94     -80.945589    
     30400   300.47287     -218612.38      0             -218171.67      198.27267    
     30500   302.07554     -218613.22      0             -218170.16     -390.61097    
     30600   303.13913     -218619.08      0             -218174.46     -923.38344    
     30700   300.52973     -218621.8       0             -218181.01     -416.579      
     30800   296.76611     -218616.75      0             -218181.47     -109.45106    
     30900   298.44909     -218616.84      0             -218179.1       965.09702    
     31000   300.35848     -218615.46      0             -218174.92      513.03456    
     31100   301.27956     -218613.33      0             -218171.44      1178.0924    
     31200   299.95467     -218609.96      0             -218170.01      335.55467    
     31300   300.87485     -218617.55      0             -218176.25     -633.93975    
     31400   299.06287     -218621.35      0             -218182.71     -719.64827    
     31500   298.50076     -218619.26      0             -218181.44      74.815238    
     31600   299.28664     -218614.62      0             -218175.66      212.75264    
     31700   302.17275     -218615.58      0             -218172.38      536.21614    
     31800   298.48459     -218611.25      0             -218173.46     -756.9653     
     31900   303.33664     -218618.6       0             -218173.7      -296.9859     
     32000   301.23758     -218618.19      0             -218176.36      47.631195    
     32100   302.13036     -218620.58      0             -218177.44      1225.1005    
     32200   296.98003     -218613.61      0             -218178.03     -694.90266    
     32300   296.59519     -218613.96      0             -218178.94     -291.05767    
     32400   300.14239     -218618.93      0             -218178.7       745.79039    
     32500   301.18521     -218617.61      0             -218175.86     -609.55659    
     32600   302.9833      -218615.26      0             -218170.87     -758.9086     
     32700   302.79354     -218615.13      0             -218171.02      349.37166    
     32800   296.73378     -218615.47      0             -218180.25     -395.80651    
     32900   299.5523      -218621.12      0             -218181.76      116.82161    
     33000   298.19761     -218617.45      0             -218180.08     -76.805826    
     33100   298.71358     -218611.94      0             -218173.81      54.603917    
     33200   303.39871     -218616.46      0             -218171.46      51.411785    
     33300   298.63455     -218610.73      0             -218172.71      545.45364    
     33400   303.07994     -218619.23      0             -218174.7      -274.53458    
     33500   299.18093     -218616.98      0             -218178.16     -189.54312    
     33600   296.84649     -218617.51      0             -218182.12      283.32227    
     33700   295.31094     -218620.54      0             -218187.4      -25.049099    
     33800   296.06542     -218622.48      0             -218188.24      706.1052     
     33900   299.10973     -218618.15      0             -218179.44      7.6136186    
     34000   300.11529     -218615.55      0             -218175.37     -737.77144    
     34100   302.09432     -218618.53      0             -218175.44     -318.86038    
     34200   300.10365     -218621.91      0             -218181.74     -413.60575    
     34300   297.3244      -218622.5       0             -218186.41     -402.88537    
     34400   300.40083     -218625.14      0             -218184.54      108.075      
     34500   299.36934     -218620.3       0             -218181.21      169.36717    
     34600   300.11705     -218619.01      0             -218178.82     -116.17345    
     34700   297.15424     -218614.56      0             -218178.72     -220.72614    
     34800   302.28932     -218622.06      0             -218178.68     -1706.4434    
     34900   295.22553     -218616.83      0             -218183.82     -1320.9928    
     35000   296.93424     -218624.11      0             -218188.59     -88.322313    
     35100   297.214       -218623.2       0             -218187.27      789.82851    
     35200   299.64739     -218618.18      0             -218178.68     -664.24817    
     35300   298.55065     -218613.57      0             -218175.68     -625.90635    
     35400   304.57575     -218623.36      0             -218176.63     -454.95517    
     35500   298.30543     -218620         0             -218182.48     -356.79855    
     35600   297.4219      -218621.48      0             -218185.24      102.09541    
     35700   297.97818     -218620.43      0             -218183.38     -271.43724    
     35800   300.48796     -218612.26      0             -218171.53     -624.37865    
     35900   304.27883     -218616.22      0             -218169.93     -1437.0394    
     36000   302.61491     -218620.53      0             -218176.68     -888.50077    
     36100   295.28938     -218615.53      0             -218182.42     -657.67011    
     36200   296.32973     -218618.46      0             -218183.83     -1650.3235    
     36300   300.95629     -218622.96      0             -218181.55     -409.20343    
     36400   301.0627      -218616.74      0             -218175.17      356.21929    
     36500   301.81886     -218613.29      0             -218170.61     -578.30322    
     36600   301.68017     -218619.19      0             -218176.72     -444.51331    
     36700   296.65832     -218619.11      0             -218184         488.60701    
     36800   297.79552     -218620.62      0             -218183.84     -757.53151    
     36900   301.26725     -218621.43      0             -218179.55      206.74509    
     37000   301.74926     -218619.49      0             -218176.91     -257.30875    
     37100   304.14359     -218622.15      0             -218176.06     -152.0731     
     37200   297.68372     -218618.03      0             -218181.41     -804.18877    
     37300   299.11065     -218625.19      0             -218186.48     -1477.8204    
     37400   299.61794     -218625.72      0             -218186.27     -1041.0974    
     37500   300.83153     -218619.66      0             -218178.42     -731.53674    
     37600   301.42365     -218616.85      0             -218174.74      31.208182    
     37700   299.42579     -218617.28      0             -218178.1      -228.69145    
     37800   301.9779      -218625.04      0             -218182.12     -628.10956    
     37900   300.32421     -218624.58      0             -218184.09     -513.56087    
     38000   302.27769     -218627.04      0             -218183.68     -143.28418    
     38100   299.60673     -218622.3       0             -218182.86     -137.73475    
     38200   302.87575     -218621.64      0             -218177.41      4.1416222    
     38300   301.7341      -218618.33      0             -218175.77      74.722761    
     38400   304.38436     -218626.41      0             -218179.96     -203.16821    
     38500   297.22852     -218622.89      0             -218186.94      144.03327    
     38600   301.73086     -218629.57      0             -218187.02     -159.76515    
     38700   301.03903     -218624.99      0             -218183.45     -915.98699    
     38800   297.99486     -218612.72      0             -218175.65     -699.79004    
     38900   305.41994     -218619.51      0             -218171.55     -535.181      
     39000   300.02687     -218621.82      0             -218181.77     -780.07589    
     39100   299.96354     -218626.38      0             -218186.42     -43.610539    
     39200   299.66547     -218624.56      0             -218185.04     -981.82047    
     39300   298.35526     -218619.25      0             -218181.65     -610.56096    
     39400   299.92003     -218618.06      0             -218178.16      644.57884    
     39500   299.06462     -218617.13      0             -218178.49     -797.67263    
     39600   300.2611      -218627.23      0             -218186.83     -927.41804    
     39700   299.93925     -218629.46      0             -218189.54      69.931336    
     39800   299.3477      -218625.25      0             -218186.19     -841.95913    
     39900   300.29513     -218622.42      0             -218181.97     -1205.9778    
     40000   300.58156     -218622.05      0             -218181.18     -525.92208    
     40100   295.21023     -218615.54      0             -218182.55      510.3353     
     40200   300.81214     -218623.82      0             -218182.61     -1264.5328    
     40300   299.93489     -218624.15      0             -218184.23     -960.70954    
     40400   296.91383     -218622.71      0             -218187.22     -1209.8222    
     40500   297.35105     -218628.04      0             -218191.91     -1785.1594    
     40600   298.90428     -218628.15      0             -218189.74     -1027.9998    
     40700   301.34736     -218624.23      0             -218182.24     -281.53695    
     40800   302.03919     -218622.94      0             -218179.94      43.897864    
     40900   300.003       -218621.03      0             -218181.01     -635.89895    
     41000   301.88013     -218630.79      0             -218188.02      62.019473    
     41100   295.0607      -218625.84      0             -218193.07      179.00309    
     41200   298.18815     -218627.92      0             -218190.56     -525.84025    
     41300   299.06589     -218625.08      0             -218186.44     -491.21478    
     41400   302.39976     -218625.76      0             -218182.23     -1714.2607    
     41500   300.56078     -218621.37      0             -218180.53     -537.10377    
     41600   303.90251     -218625.45      0             -218179.71     -734.387      
     41700   297.86934     -218623.57      0             -218186.68     -1228.5618    
     41800   299.13076     -218629.79      0             -218191.05     -1919.0871    
     41900   298.88643     -218626.33      0             -218187.95     -1106.9569    
     42000   302.56113     -218625.92      0             -218182.15     -358.09081    
     42100   301.42737     -218623.65      0             -218181.54     -748.89463    
     42200   299.23317     -218620.9       0             -218182.01     -796.61758    
     42300   299.84726     -218623.68      0             -218183.89      92.828972    
     42400   299.50843     -218624.67      0             -218185.38     -1224.2064    
     42500   300.50523     -218626.18      0             -218185.42     -528.46927    
     42600   297.16834     -218622.02      0             -218186.16     -339.47646    
     42700   300.85771     -218628.18      0             -218186.91     -335.29684    
     42800   299.5461      -218624.18      0             -218184.83     -133.07256    
     42900   300.39572     -218622.55      0             -218181.96     -694.80799    
     43000   298.12244     -218620.27      0             -218183        -1007.0538    
     43100   302.26078     -218628.79      0             -218185.46     -604.22429    
     43200   295.53622     -218624.81      0             -218191.34     -1118.6204    
     43300   301.49663     -218633.45      0             -218191.24     -604.59228    
     43400   298.04997     -218619.78      0             -218182.62     -847.05942    
     43500   299.25656     -218618.7       0             -218179.77     -823.52904    
     43600   300.49365     -218622.85      0             -218182.11     -370.68688    
     43700   300.35165     -218628.09      0             -218187.56     -549.96208    
     43800   299.40695     -218630.1       0             -218190.96      663.51623    
     43900   298.74641     -218626.19      0             -218188.02     -553.97947    
     44000   301.70953     -218621.92      0             -218179.39     -231.88255    
     44100   303.90197     -218625.59      0             -218179.85     -346.39005    
     44200   300.55957     -218624.24      0             -218183.41     -1119.3175    
     44300   298.76007     -218626.15      0             -218187.95     -1195.7057    
     44400   299.35732     -218629.2       0             -218190.13     -1115.665     
     44500   298.93126     -218625.99      0             -218187.54     -2077.5303    
     44600   300.88692     -218620.38      0             -218179.07     -1548.8137    
     44700   302.45084     -218622.67      0             -218179.07     -675.46074    
     44800   301.11897     -218625.5       0             -218183.84     -651.58014    
     44900   297.78399     -218624.82      0             -218188.05     -571.16578    
     45000   301.70254     -218630.03      0             -218187.52     -830.13735    
     45100   300.97353     -218627.56      0             -218186.12     -1056.6285    
     45200   299.6978      -218624.36      0             -218184.79      386.82539    
     45300   301.17256     -218622.89      0             -218181.16      513.51059    
     45400   305.33667     -218622.01      0             -218174.17     -784.06092    
     45500   300.68815     -218617.27      0             -218176.24     -10.92365     
     45600   300.67433     -218625.03      0             -218184.03     -208.29867    
     45700   299.52493     -218626.58      0             -218187.27     -1767.514     
     45800   297.23824     -218623.14      0             -218187.17     -2160.9545    
     45900   300.0744      -218623.01      0             -218182.89     -1311.3574    
     46000   302.55147     -218621.09      0             -218177.33     -1445.9376    
     46100   301.23411     -218619.06      0             -218177.24     -777.64539    
     46200   297.72471     -218622.61      0             -218185.93     -848.90324    
     46300   297.23252     -218626.35      0             -218190.4      -870.21732    
     46400   297.96666     -218625.99      0             -218188.96     -680.56744    
     46500   301.76617     -218625.01      0             -218182.41     -329.40823    
     46600   299.71422     -218620.27      0             -218180.67      510.65079    
     46700   301.26437     -218625.41      0             -218183.54     -16.253688    
     46800   301.4603      -218627.8       0             -218185.64     -203.96219    
     46900   297.10893     -218622.3       0             -218186.52      28.11078     
     47000   301.29833     -218627.01      0             -218185.09     -352.01588    
     47100   299.55207     -218623.38      0             -218184.02     -264.9658     
     47200   297.97982     -218620.82      0             -218183.77      95.158551    
     47300   297.92171     -218623.59      0             -218186.62     -370.54947    
     47400   299.24004     -218629.49      0             -218190.59      39.841812    
     47500   300.56417     -218632.74      0             -218191.89     -473.18585    
     47600   302.66523     -218632.33      0             -218188.4      -1046.9903    
     47700   301.3305      -218623.77      0             -218181.81     -423.47065    
     47800   301.89876     -218622.42      0             -218179.62     -181.86768    
     47900   300.85861     -218626.26      0             -218184.99     -509.51828    
     48000   299.13202     -218630.78      0             -218192.04     -650.35731    
     48100   300.0233      -218631.49      0             -218191.45     -84.76502     
     48200   297.8876      -218625.11      0             -218188.19     -21.23494     
     48300   299.35242     -218622.88      0             -218183.82      616.53328    
     48400   302.63486     -218622.71      0             -218178.84     -286.01529    
     48500   305.9474      -218625.81      0             -218177.07      168.86568    
     48600   303.00492     -218629.11      0             -218184.69     -617.94325    
     48700   295.59235     -218623.94      0             -218190.39     -453.75543    
     48800   296.10966     -218625.51      0             -218191.21     -79.424734    
     48900   299.58286     -218626.1       0             -218186.7      -1012.0729    
     49000   298.24845     -218617.96      0             -218180.51     -999.86078    
     49100   303.29989     -218625.74      0             -218180.89     -357.02491    
     49200   298.06345     -218629.1       0             -218191.93     -1284.7722    
     49300   298.50936     -218631.56      0             -218193.74     -731.13778    
     49400   301.27252     -218630.75      0             -218188.87     -867.68967    
     49500   303.72364     -218629.78      0             -218184.3      -472.07855    
     49600   302.691       -218626.85      0             -218182.89     -1322.1389    
     49700   300.44576     -218629.51      0             -218188.84     -530.00239    
     49800   299.1893      -218633.33      0             -218194.51     -144.2709     
     49900   300.12008     -218633.19      0             -218193        -83.078788    
     50000   297.28321     -218625.45      0             -218189.42     -690.82676    
     50100   298.97385     -218626.03      0             -218187.52     -452.84103    
     50200   302.04689     -218629.4       0             -218186.38     -240.98475    
     50300   301.89849     -218630.94      0             -218188.14      597.74105    
     50400   296.43872     -218626.77      0             -218191.98      235.54789    
     50500   296.48464     -218635.54      0             -218200.68     -955.3789     
     50600   294.83562     -218631.85      0             -218199.41     -50.546238    
     50700   298.52988     -218629.93      0             -218192.07      144.93021    
     50800   297.54645     -218624.92      0             -218188.51      1425.1683    
     50900   301.68851     -218628.87      0             -218186.38     -972.10441    
     51000   300.73822     -218626.34      0             -218185.25     -491.22809    
     51100   300.74202     -218632.58      0             -218191.48      70.763207    
     51200   298.85719     -218635.15      0             -218196.82     -347.14926    
     51300   299.50594     -218635.59      0             -218196.3      -234.52016    
     51400   301.03805     -218630.99      0             -218189.45     -392.83635    
     51500   302.61842     -218630.41      0             -218186.55     -559.51882    
     51600   300.6351      -218628.24      0             -218187.3      -1538.8531    
     51700   299.46667     -218630.27      0             -218191.03     -2267.7751    
     51800   299.40644     -218635.05      0             -218195.91     -1082.3543    
     51900   300.03786     -218637.85      0             -218197.78     -31.99626     
     52000   298.12096     -218627.91      0             -218190.65     -1104.7089    
     52100   303.10344     -218629.59      0             -218185.02     -1598.5863    
     52200   300.97265     -218628.99      0             -218187.55     -706.29186    
     52300   299.51832     -218633.17      0             -218193.86     -1176.702     
     52400   299.2558      -218635.49      0             -218196.57      4.8343873    
     52500   299.68581     -218633.56      0             -218194        -1168.905     
     52600   302.14954     -218627.38      0             -218184.21     -111.95833    
     52700   303.88219     -218629.73      0             -218184.02      266.0474     
     52800   299.63422     -218628.24      0             -218188.76     -709.32818    
     52900   297.718       -218630.18      0             -218193.51     -461.75782    
     53000   300.09931     -218636.12      0             -218195.96     -1522.6083    
     53100   300.48923     -218635.09      0             -218194.36     -423.57956    
     53200   303.02469     -218627.92      0             -218183.47     -659.0854     
     53300   303.52951     -218629.77      0             -218184.57     -1170.8273    
     53400   301.62507     -218633.38      0             -218190.98     -117.41055    
     53500   296.73415     -218630.53      0             -218195.31     -589.59633    
     53600   298.24253     -218633.18      0             -218195.74     -165.7031     
     53700   298.17263     -218630.19      0             -218192.86     -348.05182    
     53800   303.66473     -218629.04      0             -218183.65     -777.73845    
     53900   302.54564     -218628.53      0             -218184.78     -665.59691    
     54000   304.07578     -218636.55      0             -218190.56     -1135.4808    
     54100   300.76978     -218634.77      0             -218193.62     -1002.3092    
     54200   298.20325     -218632.01      0             -218194.63     -879.61611    
     54300   301.90538     -218635.27      0             -218192.47     -1061.5939    
     54400   303.4088      -218630.09      0             -218185.07     -1107.6651    
     54500   302.74145     -218626.14      0             -218182.1      -652.11598    
     54600   303.33654     -218633.78      0             -218188.87     -593.58541    
     54700   301.07839     -218633.74      0             -218192.15     -447.93697    
     54800   300.30011     -218634.49      0             -218194.03      685.55628    
     54900   300.41096     -218635.96      0             -218195.34     -474.19593    
     55000   301.64431     -218636.67      0             -218194.25     -941.28561    
     55100   301.24364     -218629.95      0             -218188.11     -884.3609     
     55200   302.40494     -218629.47      0             -218185.93     -244.75543    
     55300   299.76066     -218631.02      0             -218191.35      889.68635    
     55400   299.92165     -218637.34      0             -218197.44     -819.31275    
     55500   299.35752     -218636.33      0             -218197.26     -1146.2995    
     55600   300.01164     -218632.81      0             -218192.78     -387.3664     
     55700   303.67065     -218635.12      0             -218189.72     -1695.9649    
     55800   302.61209     -218633.64      0             -218189.8      -1605.2324    
     55900   300.87069     -218632.55      0             -218191.26     -1858.8243    
     56000   298.21851     -218629.88      0             -218192.48     -132.02975    
     56100   297.41779     -218630.72      0             -218194.49      319.58009    
     56200   299.43732     -218634.71      0             -218195.52     -174.36894    
     56300   297.69781     -218631.33      0             -218194.69     -1027.0363    
     56400   301.49151     -218634.53      0             -218192.33      54.789198    
     56500   303.17679     -218634.43      0             -218189.75     -852.91075    
     56600   299.57131     -218628.1       0             -218188.71     -694.21392    
     56700   297.4749      -218629.94      0             -218193.63      264.18622    
     56800   298.19184     -218637.24      0             -218199.88     -587.47041    
     56900   297.46823     -218635.1       0             -218198.8      -599.54487    
     57000   300.51129     -218633.91      0             -218193.15     -1280.8521    
     57100   300.19492     -218630.18      0             -218189.88     -1830.876     
     57200   302.60459     -218633.92      0             -218190.09     -1414.2725    
     57300   301.20948     -218634.19      0             -218192.41     -750.61238    
     57400   297.86836     -218634.02      0             -218197.14     -416.77431    
     57500   300.26096     -218641.12      0             -218200.72     -76.11973     
     57600   296.51806     -218637.46      0             -218202.55     -1064.0695    
     57700   299.65695     -218633.65      0             -218194.14     -167.72745    
     57800   300.14289     -218630.91      0             -218190.68     -736.34349    
     57900   300.5653      -218631.37      0             -218190.53      276.6183     
     58000   296.12369     -218627.8       0             -218193.47     -589.36854    
     58100   294.78815     -218633.52      0             -218201.15      658.59195    
     58200   299.71464     -218640.99      0             -218201.4      -399.67916    
     58300   298.2283      -218632.1       0             -218194.69     -154.55005    
     58400   303.33218     -218635.83      0             -218190.93     -456.2524     
     58500   302.32095     -218636.34      0             -218192.92     -1753.6476    
     58600   298.43134     -218633.27      0             -218195.55     -863.94379    
     58700   300.84885     -218638.16      0             -218196.9      -1234.7956    
     58800   301.39223     -218635.96      0             -218193.9      -688.02038    
     58900   302.68259     -218631.56      0             -218187.61     -717.95823    
     59000   301.74328     -218630.47      0             -218187.9      -303.4872     
     59100   302.28772     -218637.54      0             -218194.17     -76.544725    
     59200   297.61041     -218637.37      0             -218200.86      54.951098    
     59300   298.94836     -218637.39      0             -218198.92     -234.16682    
     59400   299.87353     -218634.97      0             -218195.14      171.0097     
     59500   297.19639     -218628.28      0             -218192.38      310.46911    
     59600   299.78646     -218631.77      0             -218192.06     -673.80041    
     59700   300.74995     -218634.55      0             -218193.44     -943.27513    
     59800   298.55181     -218638.84      0             -218200.95     -917.94777    
     59900   295.57461     -218636.1       0             -218202.58     -1425.3308    
     60000   299.29433     -218634.98      0             -218196        -600.51443    
     60100   299.05013     -218629.28      0             -218190.66     -238.70548    
     60200   302.82436     -218634.89      0             -218190.74     -1183.7649    
     60300   302.88064     -218636.53      0             -218192.29     -638.32075    
     60400   297.41232     -218637.91      0             -218201.69     -178.45369    
     60500   296.53746     -218637.87      0             -218202.93     -1042.7261    
     60600   299.59759     -218637.17      0             -218197.74     -606.16022    
     60700   299.65624     -218633.18      0             -218193.67     -705.67365    
     60800   300.44201     -218633.49      0             -218192.83     -260.06077    
     60900   299.29164     -218632.1       0             -218193.13      1008.7225    
     61000   298.62041     -218635.92      0             -218197.93      439.91948    
     61100   293.32961     -218634.11      0             -218203.88     -1056.6959    
     61200   297.38282     -218636.62      0             -218200.44     -607.9263     
     61300   298.56394     -218630.78      0             -218192.88     -1502.0762    
     61400   304.36629     -218637.69      0             -218191.27     -1209.4364    
     61500   300.15915     -218633.53      0             -218193.29     -1022.0493    
     61600   298.3494      -218634.08      0             -218196.49     -959.21524    
     61700   298.60623     -218641.28      0             -218203.31     -643.1459     
     61800   295.48614     -218640.02      0             -218206.63     -9.1123521    
     61900   298.15432     -218634.85      0             -218197.55     -194.8127     
     62000   301.2111      -218635.56      0             -218193.77     -318.03652    
     62100   300.92573     -218634.18      0             -218192.8      -529.27335    
     62200   299.01101     -218631.9       0             -218193.33     -922.31918    
     62300   299.09616     -218636.05      0             -218197.36     -1563.3176    
     62400   298.81001     -218641.01      0             -218202.74     -1599.7944    
     62500   295.77403     -218636.48      0             -218202.66     -664.85646    
     62600   299.14583     -218631.38      0             -218192.62     -1122.8344    
     62700   301.80275     -218633.01      0             -218190.35     -998.05377    
     62800   300.70863     -218635.27      0             -218194.22      458.06761    
     62900   299.10548     -218636.78      0             -218198.07     -266.27044    
     63000   301.80675     -218640.7       0             -218198.03     -529.63314    
     63100   299.09631     -218629.76      0             -218191.08     -1252.8719    
     63200   299.71836     -218626.07      0             -218186.47     -1154.5021    
     63300   303.52207     -218633.87      0             -218188.69     -1584.7681    
     63400   297.80953     -218633.7       0             -218196.9      -497.35426    
     63500   300.96504     -218639.32      0             -218197.89     -138.03569    
     63600   298.44519     -218633.68      0             -218195.95     -1015.6483    
     63700   300.92324     -218632.95      0             -218191.58     -1610.8099    
     63800   299.94456     -218628.2       0             -218188.27     -1118.8732    
     63900   304.96367     -218630.03      0             -218182.74     -809.06077    
     64000   303.72025     -218631.3       0             -218185.83     -605.75637    
     64100   298.03831     -218631.44      0             -218194.31     -1009.2261    
     64200   299.53932     -218635.6       0             -218196.26     -1497.9983    
     64300   300.25442     -218637.92      0             -218197.54     -621.79386    
     64400   302.31019     -218638.82      0             -218195.41     -1233.2118    
     64500   303.92561     -218634.27      0             -218188.49     -1103.2236    
     64600   302.20866     -218630.41      0             -218187.15     -626.76501    
     64700   299.37334     -218633.13      0             -218194.03     -703.85535    
     64800   296.40318     -218634.46      0             -218199.72     -1528.0385    
     64900   302.12095     -218641.05      0             -218197.93     -526.95159    
     65000   299.4049      -218632.73      0             -218193.59     -749.19466    
     65100   301.28249     -218631.52      0             -218189.62     -888.42262    
     65200   300.93077     -218631.34      0             -218189.96      0.2457843    
     65300   299.76602     -218638.04      0             -218198.37     -1165.0285    
     65400   296.10661     -218636.36      0             -218202.06     -370.0633     
     65500   297.2998      -218634.85      0             -218198.8      -705.67198    
     65600   300.65079     -218632.59      0             -218191.62     -1354.3909    
     65700   300.29035     -218632.78      0             -218192.34     -448.57828    
     65800   301.35276     -218636.27      0             -218194.27     -1624.154     
     65900   300.32703     -218636.63      0             -218196.13     -780.2247     
     66000   296.80468     -218636.28      0             -218200.96      59.700283    
     66100   295.35068     -218640.71      0             -218207.51      77.28211     
     66200   297.67291     -218639.26      0             -218202.66     -404.83906    
     66300   299.61139     -218636.44      0             -218197        -712.19041    
     66400   300.42499     -218636.16      0             -218195.52      16.004771    
     66500   300.54334     -218634.26      0             -218193.44      469.62136    
     66600   298.50891     -218632.26      0             -218194.43     -417.24508    
     66700   295.91917     -218635.26      0             -218201.23     -816.43214    
     66800   298.90929     -218642.77      0             -218204.35     -1359.1929    
     66900   297.72925     -218638.11      0             -218201.43     -1211.4034    
     67000   301.21475     -218633.82      0             -218192.02     -1707.5689    
     67100   301.05214     -218633.64      0             -218192.08     -1319.4767    
     67200   298.89201     -218634.24      0             -218195.85     -420.00484    
     67300   301.82846     -218643.57      0             -218200.87     -1596.3932    
     67400   296.83343     -218637.63      0             -218202.26      174.44298    
     67500   302.42938     -218638.19      0             -218194.62     -446.56614    
     67600   302.26741     -218632.44      0             -218189.1       186.0757     
     67700   302.03243     -218636.01      0             -218193.02     -526.27789    
     67800   298.92777     -218637.85      0             -218199.41     -1258.7006    
     67900   301.03364     -218642.04      0             -218200.51     -250.52211    
     68000   300.7093      -218640.44      0             -218199.38     -311.0151     
     68100   300.93028     -218636.23      0             -218194.85     -111.64455    
     68200   303.7182      -218631.7       0             -218186.24     -373.34141    
     68300   301.97775     -218632.28      0             -218189.37     -775.28787    
     68400   300.36389     -218635.68      0             -218195.14     -1176.372     
     68500   301.15375     -218639.67      0             -218197.96     -2324.408     
     68600   300.49452     -218640.43      0             -218199.69     -1027.0413    
     68700   295.32492     -218634.99      0             -218201.83     -945.59016    
     68800   298.01091     -218637.99      0             -218200.89     -119.85453    
     68900   302.91573     -218639.11      0             -218194.82     -563.55123    
     69000   301.02142     -218635.02      0             -218193.51     -1531.9225    
     69100   299.93152     -218638.71      0             -218198.8      -258.71836    
     69200   298.36081     -218643.01      0             -218205.4      -809.76267    
     69300   301.39371     -218646.77      0             -218204.71     -99.769418    
     69400   301.42437     -218642.62      0             -218200.52     -173.42008    
     69500   299.34652     -218636.29      0             -218197.23     -748.4229     
     69600   299.3173      -218636         0             -218196.98     -913.06308    
     69700   301.38792     -218641.41      0             -218199.36     -1497.3494    
     69800   299.72557     -218640.14      0             -218200.52     -972.02975    
     69900   300.79705     -218636.18      0             -218195        -193.18115    
     70000   304.75834     -218635.75      0             -218188.76     -1689.9648    
     70100   302.46078     -218636.01      0             -218192.39     -1107.9405    
     70200   299.31283     -218639.12      0             -218200.12     -1061.5829    
     70300   302.84715     -218647.66      0             -218203.47     -909.32023    
     70400   300.19726     -218643.35      0             -218203.05     -595.73323    
     70500   303.83654     -218642.21      0             -218196.57     -15.902026    
     70600   302.06525     -218634.93      0             -218191.89      876.94208    
     70700   298.55399     -218634         0             -218196.1      -100.83048    
     70800   299.4345      -218642.68      0             -218203.49      152.70172    
     70900   296.39077     -218637.57      0             -218202.85     -1988.5589    
     71000   298.48587     -218637.26      0             -218199.47     -715.24499    
     71100   300.24297     -218636.22      0             -218195.85     -730.58431    
     71200   297.98365     -218633.25      0             -218196.19     -2329.8094    
     71300   299.32012     -218640.22      0             -218201.2      -3222.4935    
     71400   299.08395     -218645.42      0             -218206.75     -1462.5667    
     71500   299.52533     -218644.82      0             -218205.5      -2017.4968    
     71600   298.90584     -218634.59      0             -218196.18     -519.99064    
     71700   300.39694     -218635.14      0             -218194.54     -511.77189    
     71800   302.97309     -218640.85      0             -218196.47      360.75547    
     71900   295.85348     -218636.98      0             -218203.05     -403.02292    
     72000   299.32209     -218643.54      0             -218204.52      449.68137    
     72100   297.56338     -218639.92      0             -218203.48     -695.22779    
     72200   300.73676     -218642.69      0             -218201.6      -698.99942    
     72300   299.59854     -218639.16      0             -218199.73     -1585.9383    
     72400   300.79697     -218638.84      0             -218197.65     -1246.4179    
     72500   303.96653     -218636.71      0             -218190.88     -1860.7826    
     72600   306.45758     -218636.04      0             -218186.55     -1857.1026    
     72700   302.76532     -218637.9       0             -218193.83     -188.4177     
     72800   300.77715     -218640.68      0             -218199.53      15.652403    
     72900   297.71456     -218639.03      0             -218202.37     -1722.5506    
     73000   296.58426     -218637.08      0             -218202.08     -682.7684     
     73100   303.81553     -218642.68      0             -218197.07     -651.95419    
     73200   307.75282     -218643.51      0             -218192.12     -590.17856    
     73300   299.76796     -218636.11      0             -218196.44     -293.9707     
     73400   298.2478      -218641.63      0             -218204.18     -702.68893    
     73500   297.92412     -218640.84      0             -218203.87     -359.00918    
     73600   300.18223     -218640.87      0             -218200.58     -1262.3054    
     73700   301.17759     -218636.95      0             -218195.21     -1087.7729    
     73800   303.74157     -218639.41      0             -218193.9      -755.32002    
     73900   300.92101     -218645.31      0             -218203.94     -838.23846    
     74000   295.02676     -218639.34      0             -218206.62     -943.23066    
     74100   298.43599     -218640.33      0             -218202.61     -2030.8871    
     74200   299.96432     -218638.21      0             -218198.25     -789.24183    
     74300   299.82125     -218636.04      0             -218196.29     -992.82451    
     74400   301.59712     -218638.6       0             -218196.24     -1284.4868    
     74500   296.86669     -218638.65      0             -218203.23     -375.94821    
     74600   299.79169     -218646.56      0             -218206.85      184.25718    
     74700   297.84822     -218641.59      0             -218204.73     -305.36429    
     74800   301.20488     -218639.66      0             -218197.88     -561.7222     
     74900   300.18538     -218635.43      0             -218195.14     -984.3978     
     75000   301.29707     -218639.11      0             -218197.19     -1144.844     
     75100   301.58527     -218642.72      0             -218200.38     -366.35429    
     75200   300.09613     -218641.38      0             -218201.22     -1571.4521    
     75300   301.01357     -218642.42      0             -218200.91     -1022.2448    
     75400   300.00187     -218640.8       0             -218200.78     -728.61648    
     75500   301.50421     -218640.97      0             -218198.75     -776.12838    
     75600   300.42699     -218638.46      0             -218197.82     -712.70653    
     75700   301.60329     -218642.37      0             -218200.01     -120.86641    
     75800   298.29658     -218643.94      0             -218206.42     -81.4143      
     75900   299.14113     -218647         0             -218208.24     -1247.4733    
     76000   298.7254      -218642.41      0             -218204.26     -845.95977    
     76100   303.80263     -218640.71      0             -218195.12     -798.26152    
     76200   302.1405      -218640.06      0             -218196.9      -824.14063    
     76300   298.20205     -218640.25      0             -218202.87     -1202.3823    
     76400   301.62382     -218647.83      0             -218205.44     -476.93386    
     76500   300.07329     -218645.07      0             -218204.95     -388.2368     
     76600   301.82886     -218641.82      0             -218199.12     -1007.0565    
     76700   304.79996     -218638.81      0             -218191.76     -791.12879    
     76800   302.84388     -218638.65      0             -218194.46     -1437.5779    
     76900   299.8421      -218639.98      0             -218200.2      -620.21769    
     77000   301.3137      -218644.74      0             -218202.8      -666.5245     
     77100   300.47887     -218644.27      0             -218203.56     -825.12193    
     77200   299.94954     -218644.25      0             -218204.31     -1269.1171    
     77300   298.57897     -218644.99      0             -218207.06     -936.11244    
     77400   300.83094     -218650.76      0             -218209.53     -957.04549    
     77500   296.48296     -218643.49      0             -218208.64     -1418.4069    
     77600   299.57075     -218639.96      0             -218200.57     -625.79037    
     77700   303.00904     -218642.99      0             -218198.56     -1082.6902    
     77800   298.96405     -218640.92      0             -218202.43     -906.43224    
     77900   295.38576     -218638.74      0             -218205.49     -591.5554     
     78000   298.4681      -218644.21      0             -218206.44     -301.04193    
     78100   299.9864      -218646.29      0             -218206.3      -903.52473    
     78200   302.30569     -218645.44      0             -218202.04     -1087.7852    
     78300   302.105       -218642.54      0             -218199.43     -1128.0446    
     78400   302.26212     -218644.76      0             -218201.43     -354.13769    
     78500   299.23706     -218646.85      0             -218207.96     -502.71563    
     78600   299.55829     -218649.78      0             -218210.42     -313.6641     
     78700   303.02059     -218650.62      0             -218206.18     -458.91402    
     78800   303.81546     -218642.06      0             -218196.45     -840.3944     
     78900   302.01214     -218639.81      0             -218196.84     -534.53658    
     79000   301.90083     -218645.69      0             -218202.88     -1199.7669    
     79100   298.39241     -218644.77      0             -218207.12      358.98194    
     79200   301.89018     -218650.8       0             -218208.01     -219.19793    
     79300   299.02483     -218643.36      0             -218204.78     -737.39593    
     79400   304.80232     -218641.16      0             -218194.1      -793.24028    
     79500   303.3874      -218639.12      0             -218194.14      297.40866    
     79600   301.08937     -218641.76      0             -218200.15     -1311.3389    
     79700   298.56141     -218642.31      0             -218204.41     -1201.3778    
     79800   301.14979     -218648.78      0             -218207.08     -1443.8097    
     79900   297.5478      -218642.85      0             -218206.43     -1571.5068    
     80000   300.74111     -218641.36      0             -218200.26     -317.87815    
     80100   304.54562     -218641.97      0             -218195.29     -16.789256    
     80200   303.47364     -218645.33      0             -218200.22     -16.0904      
     80300   303.34453     -218651.06      0             -218206.14      138.0546     
     80400   302.59797     -218650.14      0             -218206.31     -713.18597    
     80500   300.69907     -218646.47      0             -218205.43     -903.21168    
     80600   303.19053     -218645.31      0             -218200.61      619.26876    
     80700   303.24966     -218639.09      0             -218194.31     -739.6681     
     80800   303.6317      -218642.11      0             -218196.77     -1018.9382    
     80900   298.57013     -218644.34      0             -218206.42     -1430.043     
     81000   298.75455     -218645.73      0             -218207.54     -808.28052    
     81100   301.83069     -218646.88      0             -218204.18     -255.23123    
     81200   304.06523     -218645.54      0             -218199.56     -578.68408    
     81300   302.97164     -218642.88      0             -218198.51     -1908.9285    
     81400   298.69596     -218643.6       0             -218205.5      -463.56601    
     81500   298.4542      -218648.58      0             -218210.83     -168.45451    
     81600   299.6904      -218649.52      0             -218209.96     -975.97081    
     81700   301.51835     -218645.16      0             -218202.92     -1540.5836    
     81800   301.26797     -218641.51      0             -218199.64     -603.1501     
     81900   303.4258      -218646.82      0             -218201.78      165.52362    
     82000   302.09192     -218648.21      0             -218205.13     -371.91192    
     82100   298.23395     -218645.77      0             -218208.34     -208.15208    
     82200   299.95339     -218648.58      0             -218208.64     -913.63346    
     82300   299.78912     -218641.4       0             -218201.69     -1205.4593    
     82400   299.9893      -218636.82      0             -218196.82     -590.23106    
     82500   300.77511     -218640.31      0             -218199.16     -1006.5347    
     82600   299.86179     -218645.63      0             -218205.81     -1767.6985    
     82700   298.16765     -218646.26      0             -218208.93     -2363.1395    
     82800   299.02283     -218646.65      0             -218208.07     -1328.2049    
     82900   300.20355     -218641.93      0             -218201.62     -258.98358    
     83000   300.11        -218634.46      0             -218194.28     -1702.1161    
     83100   306.75661     -218647.32      0             -218197.4       217.98674    
     83200   301.15893     -218645.84      0             -218204.13      560.25124    
     83300   298.74886     -218645.48      0             -218207.3      -448.59936    
     83400   300.32679     -218647.4       0             -218206.91     -307.13125    
     83500   300.81036     -218642.51      0             -218201.31     -458.96594    
     83600   302.0155      -218637.41      0             -218194.44     -57.908764    
     83700   301.36865     -218639.57      0             -218197.55     -575.94517    
     83800   300.55774     -218643.36      0             -218202.53     -961.78259    
     83900   297.77253     -218640.79      0             -218204.04     -601.77613    
     84000   301.91405     -218646.96      0             -218204.14     -963.80891    
     84100   303.11622     -218647.04      0             -218202.46     -789.84562    
     84200   299.168       -218639.9       0             -218201.11     -482.34278    
     84300   299.88982     -218641.36      0             -218201.5      -536.99424    
     84400   297.71249     -218644.53      0             -218207.87     -742.55745    
     84500   298.01092     -218648.35      0             -218211.26     -972.39587    
     84600   296.54947     -218643.43      0             -218208.48     -876.0498     
     84700   303.48782     -218643.89      0             -218198.76     -1205.3979    
     84800   303.56241     -218643.54      0             -218198.3       94.511307    
     84900   299.92484     -218643.06      0             -218203.16     -1003.7952    
     85000   300.26616     -218648.32      0             -218207.92     -744.9159     
     85100   296.70862     -218642.78      0             -218207.59     -849.86629    
     85200   299.21818     -218642.31      0             -218203.45     -764.91426    
     85300   302.9107      -218638.96      0             -218194.68     -2105.4033    
     85400   303.7084      -218635.62      0             -218190.17     -249.75751    
     85500   305.16917     -218643.07      0             -218195.47     -541.4669     
     85600   302.18186     -218643.5       0             -218200.28     -1281.7889    
     85700   299.08916     -218645.49      0             -218206.81     -573.57289    
     85800   298.18077     -218647.32      0             -218209.98     -144.52708    
     85900   298.31887     -218644.56      0             -218207.01     -777.98645    
     86000   304.30237     -218647.64      0             -218201.31     -991.97218    
     86100   304.03836     -218644.49      0             -218198.56     -766.77742    
     86200   299.5467      -218642.23      0             -218202.88     -886.52608    
     86300   298.02984     -218648.12      0             -218211        -1684.1121    
     86400   298.71786     -218648.64      0             -218210.5      -1016.5298    
     86500   296.80678     -218639.75      0             -218204.42     -1023.3541    
     86600   301.9236      -218644.23      0             -218201.4      -851.84305    
     86700   305.82544     -218649.53      0             -218200.98     -891.83894    
     86800   302.20201     -218647.15      0             -218203.91     -653.93745    
     86900   297.95879     -218644.01      0             -218206.99     -727.71058    
     87000   300.99011     -218647.43      0             -218205.96     -628.39222    
     87100   299.95952     -218645.05      0             -218205.09     -906.56891    
     87200   301.77767     -218647.53      0             -218204.91     -1305.5044    
     87300   298.54804     -218644.91      0             -218207.02     -550.23969    
     87400   300.19564     -218649.89      0             -218209.59     -743.53343    
     87500   298.18066     -218646.63      0             -218209.28     -1376.9323    
     87600   300.36816     -218644.19      0             -218203.63     -737.51147    
     87700   302.32478     -218642.5       0             -218199.08     -668.69754    
     87800   304.12143     -218646.96      0             -218200.9      -237.01314    
     87900   297.71679     -218646.88      0             -218210.21     -1036.1654    
     88000   298.49649     -218648.56      0             -218210.75     -1759.7452    
     88100   298.52398     -218645.55      0             -218207.7      -771.2        
     88200   303.35189     -218647.17      0             -218202.24     -694.80766    
     88300   299.16073     -218638.64      0             -218199.86     -122.13672    
     88400   298.86512     -218645.34      0             -218206.99     -816.95875    
     88500   296.9315      -218649.17      0             -218213.65     -280.46427    
     88600   298.60227     -218648.05      0             -218210.09     -1115.5486    
     88700   300.2129      -218645.16      0             -218204.83     -971.99364    
     88800   302.9004      -218647.02      0             -218202.76     -886.66448    
     88900   302.76651     -218651.5       0             -218207.43     -746.82118    
     89000   297.13265     -218652.88      0             -218217.07     -1055.6889    
     89100   298.9365      -218654.43      0             -218215.97     -897.25591    
     89200   298.9495      -218648.38      0             -218209.91     -403.68985    
     89300   300.09064     -218645.97      0             -218205.82     -397.50001    
     89400   301.50228     -218646.63      0             -218204.41     -906.85691    
     89500   302.51301     -218651.74      0             -218208.04     -1306.6178    
     89600   298.14427     -218653.58      0             -218216.29     -1447.6129    
     89700   297.58353     -218654.8       0             -218218.33     -927.10865    
     89800   297.87679     -218649.94      0             -218213.04     -1466.668     
     89900   298.24193     -218647.65      0             -218210.21     -155.51168    
     90000   302.03032     -218649.73      0             -218206.74     -238.81469    
     90100   300.93368     -218646.26      0             -218204.88     -1234.1556    
     90200   302.80204     -218646.98      0             -218202.85     -1009.1172    
     90300   301.11799     -218646.95      0             -218205.29     -1106.0104    
     90400   297.83588     -218648.69      0             -218211.85     -1325.4282    
     90500   297.83894     -218651.39      0             -218214.54     -1834.5094    
     90600   298.34733     -218649.25      0             -218211.66     -1266.016     
     90700   303.09534     -218648.28      0             -218203.73     -880.12647    
     90800   305.79132     -218651.42      0             -218202.92     -1214.5741    
     90900   300.53827     -218647.12      0             -218206.32     -578.23974    
     91000   298.76015     -218648.71      0             -218210.52     -651.05912    
     91100   296.41533     -218645.79      0             -218211.03     -870.1294     
     91200   300.56801     -218649.3       0             -218208.46     -967.75986    
     91300   303.69183     -218644.96      0             -218199.53      194.42143    
     91400   303.47746     -218643.95      0             -218198.84     -1276.9696    
     91500   298.72132     -218644.22      0             -218206.08     -1213.2771    
     91600   298.32486     -218646.86      0             -218209.31     -1891.5362    
     91700   298.86067     -218649.74      0             -218211.4      -1443.6562    
     91800   299.20079     -218651.84      0             -218212.99     -685.86941    
     91900   301.68039     -218655.6       0             -218213.13     -278.61671    
     92000   299.94209     -218648.85      0             -218208.92     -731.53911    
     92100   303.96879     -218649.19      0             -218203.35     -1219.6947    
     92200   302.80332     -218647.68      0             -218203.56     -1655.973     
     92300   299.07932     -218650.98      0             -218212.31     -1596.439     
     92400   300.59142     -218654.37      0             -218213.49     -657.13092    
     92500   299.56231     -218650.48      0             -218211.11     -603.35407    
     92600   303.49819     -218651.98      0             -218206.84     -971.52508    
     92700   301.96468     -218647.14      0             -218204.24     -2083.2036    
     92800   301.11243     -218647.29      0             -218205.65     -68.541148    
     92900   299.28944     -218651.33      0             -218212.36     -234.99872    
     93000   297.78927     -218652.28      0             -218215.51     -1072.9813    
     93100   299.60367     -218652.21      0             -218212.77     -1036.6835    
     93200   303.17539     -218649.94      0             -218205.27     -1385.4316    
     93300   300.89932     -218645.64      0             -218204.31     -1379.9993    
     93400   298.76628     -218645.23      0             -218207.03     -664.67508    
     93500   298.37284     -218647.44      0             -218209.81     -1874.2538    
     93600   298.81496     -218648.06      0             -218209.78     -1326.4927    
     93700   300.65035     -218651.54      0             -218210.58     -1203.2606    
     93800   298.01197     -218647.45      0             -218210.35     -879.60126    
     93900   299.5925      -218646.71      0             -218207.29     -517.46249    
     94000   303.83224     -218648.18      0             -218202.54     -1667.8207    
     94100   298.64394     -218643         0             -218204.98     -818.92813    
     94200   301.92299     -218654.83      0             -218211.99     -873.55019    
     94300   299.14978     -218653.92      0             -218215.15     -686.34497    
     94400   301.47518     -218654.14      0             -218211.96     -1309.3675    
     94500   298.17305     -218643.96      0             -218206.62     -521.18301    
     94600   301.29673     -218648.06      0             -218206.14     -805.4904     
     94700   300.07504     -218648.2       0             -218208.07     -1671.2377    
     94800   298.19196     -218648.06      0             -218210.7      -1493.4737    
     94900   297.84682     -218649.88      0             -218213.03     -204.19601    
     95000   297.64724     -218650.71      0             -218214.15     -379.11608    
     95100   302.03211     -218654.64      0             -218211.65     -2096.5117    
     95200   300.92012     -218647.88      0             -218206.52     -2901.3126    
     95300   301.74874     -218646.52      0             -218203.94     -2068.7602    
     95400   300.74801     -218650.72      0             -218209.61     -892.39003    
     95500   296.78986     -218651.34      0             -218216.04     -814.04526    
     95600   299.71311     -218655.27      0             -218215.68     -1415.0007    
     95700   301.64084     -218654.81      0             -218212.38     -550.97725    
     95800   300.62365     -218650.2       0             -218209.27     -881.65829    
     95900   302.87243     -218651.79      0             -218207.56     -527.84381    
     96000   300.02682     -218647.96      0             -218207.91     -329.66855    
     96100   296.87869     -218653.13      0             -218217.69     -956.99622    
     96200   295.61267     -218653.06      0             -218219.48     -1061.485     
     96300   300.24734     -218654.39      0             -218214.01     -1066.342     
     96400   301.80687     -218651.04      0             -218208.38     -1500.2906    
     96500   300.78186     -218648.65      0             -218207.49     -964.05986    
     96600   298.13981     -218647.02      0             -218209.73     -805.80878    
     96700   296.27774     -218650.49      0             -218215.93     -1657.3169    
     96800   294.59891     -218656.25      0             -218224.16     -1022.2208    
     96900   294.06456     -218653.37      0             -218222.07     -649.98566    
     97000   298.10376     -218654         0             -218216.77     -735.46311    
     97100   301.52244     -218654.12      0             -218211.87     -916.46686    
     97200   299.90045     -218648.05      0             -218208.18     -1074.2781    
     97300   299.64409     -218646.99      0             -218207.5      -1042.0549    
     97400   299.10739     -218653.05      0             -218214.34     -1013.895     
     97500   294.24123     -218651.41      0             -218219.85     -801.78898    
     97600   298.25593     -218654.69      0             -218217.23     -1724.5675    
     97700   300.82585     -218653.56      0             -218212.33     -1427.5099    
     97800   300.90835     -218651.92      0             -218210.57     -1613.905     
     97900   298.07217     -218647.19      0             -218210        -1151.1714    
     98000   300.10909     -218651.32      0             -218211.14     -1771.5071    
     98100   296.79139     -218650.52      0             -218215.21     -732.56789    
     98200   298.25438     -218661.08      0             -218223.62     -1580.2497    
     98300   297.81055     -218658.77      0             -218221.96     -2030.1521    
     98400   302.04392     -218657.01      0             -218213.99     -1016.1577    
     98500   302.5237      -218655.6       0             -218211.89     -481.18124    
     98600   299.55006     -218650.35      0             -218211        -1017.1864    
     98700   300.12467     -218651.84      0             -218211.65     -944.93904    
     98800   297.94846     -218651.76      0             -218214.76     -831.95712    
     98900   298.61698     -218655.62      0             -218217.64     -1643.8843    
     99000   299.77561     -218656.82      0             -218217.13     -1792.7763    
     99100   301.02169     -218651.07      0             -218209.56     -2244.9246    
     99200   299.26654     -218645.5       0             -218206.56     -678.282      
     99300   301.89176     -218651.13      0             -218208.34     -2543.0178    
     99400   298.90185     -218653.99      0             -218215.58     -2019.5215    
     99500   296.79913     -218653.65      0             -218218.33     -16.182801    
     99600   297.72363     -218653.49      0             -218216.82     -1134.8887    
     99700   301.67016     -218655.09      0             -218212.62     -603.43062    
     99800   303.38952     -218653.75      0             -218208.77     -173.61733    
     99900   302.52218     -218650.26      0             -218206.55     -890.17066    
    100000   299.5361      -218654.08      0             -218214.74     -665.53431    
    100100   296.7607      -218655.02      0             -218219.76      534.8928     
    100200   300.26279     -218656.26      0             -218215.86     -960.51686    
    100300   301.85266     -218652.47      0             -218209.74     -728.60351    
    100400   302.6706      -218652.03      0             -218208.1      -222.21241    
    100500   301.18589     -218651.55      0             -218209.79     -1852.0876    
    100600   302.6963      -218656.37      0             -218212.4      -493.35778    
    100700   298.40441     -218652.98      0             -218215.3      -913.82697    
    100800   297.84565     -218661.06      0             -218224.21     -2026.5637    
    100900   298.37473     -218660.03      0             -218222.4      -1325.4441    
    101000   301.08566     -218655.67      0             -218214.07     -859.82062    
    101100   302.55072     -218654.16      0             -218210.4      -534.11347    
    101200   302.19351     -218654.17      0             -218210.94     -662.32059    
    101300   299.59324     -218655.55      0             -218216.13     -136.18809    
    101400   296.9228      -218657.62      0             -218222.12     -734.11571    
    101500   297.93347     -218657.65      0             -218220.67     -677.30024    
    101600   300.7995      -218654.43      0             -218213.24     -1453.0858    
    101700   304.12478     -218654.93      0             -218208.87     -574.32249    
    101800   302.37811     -218655.84      0             -218212.34     -1284.6421    
    101900   297.53841     -218652.65      0             -218216.25     -1686.1065    
    102000   296.32711     -218653.99      0             -218219.36     -1925.0157    
    102100   299.96577     -218657.23      0             -218217.27     -2033.5426    
    102200   302.43265     -218653.4       0             -218209.81     -1785.53      
    102300   303.3354      -218651.76      0             -218206.85      261.86041    
    102400   301.06649     -218652         0             -218210.42     -1172.2993    
    102500   301.57267     -218655.91      0             -218213.58     -2052.4276    
    102600   300.74541     -218655.57      0             -218214.46     -1403.3072    
    102700   302.81851     -218658.3       0             -218214.15     -135.82688    
    102800   302.98098     -218657.42      0             -218213.03     -952.66863    
    102900   301.56046     -218654.63      0             -218212.32     -872.25923    
    103000   301.41928     -218654.2       0             -218212.1      -585.40888    
    103100   300.43607     -218654.69      0             -218214.04     -981.0402     
    103200   299.94181     -218659.52      0             -218219.59     -1387.7011    
    103300   297.69799     -218657.83      0             -218221.2      -1086.1956    
    103400   301.18804     -218654.57      0             -218212.81     -719.2049     
    103500   301.31284     -218651.52      0             -218209.58     -1726.697     
    103600   302.85363     -218656.03      0             -218211.83     -1244.0534    
    103700   297.51461     -218652.76      0             -218216.39     -1003.0001    
    103800   297.57825     -218654.77      0             -218218.31     -1199.9429    
    103900   300.74313     -218657.1       0             -218215.99     -1085.3101    
    104000   300.68097     -218650.61      0             -218209.59     -645.57203    
    104100   302.34257     -218651.36      0             -218207.91     -1058.8786    
    104200   296.76884     -218647.36      0             -218212.09     -1539.1051    
    104300   298.23769     -218656.93      0             -218219.5      -539.94222    
    104400   298.03636     -218657.03      0             -218219.89     -1095.8902    
    104500   297.96058     -218652.62      0             -218215.6      -1513.5327    
    104600   299.72589     -218653.16      0             -218213.55     -884.19796    
    104700   298.17843     -218651         0             -218213.65      253.49375    
    104800   299.55783     -218653.48      0             -218214.11     -118.54549    
    104900   297.46888     -218657.19      0             -218220.89     -690.92319    
    105000   298.5033      -218664.09      0             -218226.27     -1395.6126    
    105100   298.15431     -218658.4       0             -218221.1      -942.97037    
    105200   299.73249     -218654.69      0             -218215.07     -1022.2578    
    105300   300.68679     -218653.04      0             -218212.02     -1992.7528    
    105400   301.19678     -218654.78      0             -218213.01     -1143.9494    
    105500   296.95205     -218654.98      0             -218219.43     -1021.2944    
    105600   296.06235     -218658.05      0             -218223.81     -1161.4177    
    105700   298.5505      -218656.23      0             -218218.34     -925.48318    
    105800   298.62625     -218649.92      0             -218211.92     -865.78484    
    105900   300.63059     -218653.93      0             -218212.99     -1775.8521    
    106000   298.2102      -218652.95      0             -218215.56     -2071.8827    
    106100   296.75564     -218652.89      0             -218217.63     -1184.014     
    106200   298.03649     -218656.06      0             -218218.92     -925.50013    
    106300   301.98113     -218660.19      0             -218217.27     -1329.0574    
    106400   298.17798     -218649.3       0             -218211.96     -833.43395    
    106500   304.39141     -218654.38      0             -218207.92     -535.91853    
    106600   299.47846     -218650.26      0             -218211.01     -948.9121     
    106700   298.62938     -218657.43      0             -218219.43     -1558.2195    
    106800   297.11624     -218655.26      0             -218219.47     -1914.593     
    106900   295.2325      -218648.58      0             -218215.56     -1912.2828    
    107000   299.36343     -218650.93      0             -218211.85     -259.57249    
    107100   302.92534     -218652.56      0             -218208.25     -1500.1068    
    107200   301.83295     -218653.21      0             -218210.51     -724.05238    
    107300   299.57042     -218657.75      0             -218218.36     -509.1583     
    107400   298.54452     -218659.52      0             -218221.64     -1106.9571    
    107500   299.41304     -218656.66      0             -218217.5      -1499.9348    
    107600   299.20536     -218650.02      0             -218211.17     -1251.1587    
    107700   304.36229     -218657.53      0             -218211.12     -623.71814    
    107800   298.94573     -218653.39      0             -218214.92     -1811.1527    
    107900   299.17605     -218656.11      0             -218217.31     -1635.1951    
    108000   299.88575     -218656.58      0             -218216.73     -445.2272     
    108100   300.42842     -218650.71      0             -218210.06     -926.23407    
    108200   304.03481     -218652.16      0             -218206.23     -303.06986    
    108300   300.22146     -218651.43      0             -218211.09     -679.16557    
    108400   298.38546     -218654.13      0             -218216.48     -1430.0982    
    108500   297.31352     -218653.97      0             -218217.9      -2444.1753    
    108600   301.85829     -218658.44      0             -218215.7      -948.85826    
    108700   304.8083      -218653.32      0             -218206.26     -1703.3408    
    108800   303.56776     -218649.05      0             -218203.8      -1502.3047    
    108900   303.5894      -218655.23      0             -218209.95     -177.81057    
    109000   299.68493     -218653.99      0             -218214.44     -161.73898    
    109100   300.45595     -218657.72      0             -218217.04     -604.38339    
    109200   297.81703     -218655.38      0             -218218.57     -1685.9168    
    109300   300.55544     -218654.74      0             -218213.91     -1329.979     
    109400   302.8467      -218651.8       0             -218207.62     -897.76899    
    109500   302.67391     -218653.33      0             -218209.39     -66.890615    
    109600   301.42885     -218658.51      0             -218216.4      -1191.4206    
    109700   296.83911     -218654.22      0             -218218.84     -1244.7332    
    109800   298.11435     -218655.03      0             -218217.78     -1813.7202    
    109900   296.1529      -218649.11      0             -218214.74     -1793.9047    
    110000   301.97034     -218654.53      0             -218211.63     -1261.4731    
    110100   298.13524     -218650.05      0             -218212.77     -1108.7498    
    110200   299.29702     -218659.47      0             -218220.48     -371.83271    
    110300   296.30468     -218657.11      0             -218222.52     -763.77439    
    110400   301.07244     -218659.03      0             -218217.44     -769.8001     
    110500   303.92048     -218657.18      0             -218211.41     -1587.9026    
    110600   303.44958     -218655.95      0             -218210.87     -1209.9439    
    110700   301.46022     -218655.93      0             -218213.77     -982.00832    
    110800   299.94565     -218658.88      0             -218218.95     -820.37806    
    110900   294.31289     -218660.35      0             -218228.67     -1552.95      
    111000   295.99505     -218659.48      0             -218225.34     -1610.7264    
    111100   296.66701     -218652.95      0             -218217.82     -2179.0773    
    111200   300.56879     -218653.13      0             -218212.28     -2246.9623    
    111300   301.61288     -218653.61      0             -218211.23     -2060.2705    
    111400   300.57906     -218653.57      0             -218212.71     -721.12807    
    111500   302.72011     -218662.87      0             -218218.87     -2173.812     
    111600   294.42403     -218656.22      0             -218224.38     -1319.4972    
    111700   298.82267     -218659.23      0             -218220.94     -1029.4705    
    111800   302.18388     -218658.65      0             -218215.43      52.725684    
    111900   299.88707     -218654.91      0             -218215.06     -373.06533    
    112000   297.31037     -218651.51      0             -218215.44     -154.66546    
    112100   298.31259     -218654.9       0             -218217.36     -167.48044    
    112200   300.74276     -218661.62      0             -218220.52     -781.17654    
    112300   295.47078     -218656.45      0             -218223.08     -1166.2255    
    112400   296.2323      -218651.12      0             -218216.63     -1648.7963    
    112500   298.93558     -218648.75      0             -218210.3      -1258.6342    
    112600   303.14122     -218654.01      0             -218209.38     -2524.8565    
    112700   298.74602     -218652.11      0             -218213.93     -1328.8178    
    112800   300.61804     -218660.59      0             -218219.67     -1687.2942    
    112900   295.0999      -218652.33      0             -218219.51     -2254.9349    
    113000   300.04213     -218657.24      0             -218217.16     -1798.214     
    113100   298.80598     -218653.89      0             -218215.63     -792.78409    
    113200   299.65235     -218653.37      0             -218213.87      58.40751     
    113300   302.55164     -218654.53      0             -218210.77     -160.28338    
    113400   297.63882     -218647.46      0             -218210.91     -857.45162    
    113500   300.23726     -218657.59      0             -218217.23     -903.50182    
    113600   296.89066     -218657.44      0             -218221.98     -1110.6218    
    113700   298.70113     -218658.23      0             -218220.13     -1617.4651    
    113800   300.77813     -218654.13      0             -218212.97     -1962.2976    
    113900   300.28158     -218652.22      0             -218211.8      -1414.4753    
    114000   298.52916     -218651.46      0             -218213.6      -2026.7766    
    114100   299.42956     -218656.07      0             -218216.89     -1678.4578    
    114200   300.07935     -218659.79      0             -218219.66     -1108.5674    
    114300   294.50266     -218655.84      0             -218223.88     -868.18052    
    114400   296.79948     -218657.45      0             -218222.13     -843.85365    
    114500   301.69161     -218656.37      0             -218213.87     -1576.4838    
    114600   301.0112      -218652.41      0             -218210.91     -1076.589     
    114700   298.33273     -218650.1       0             -218212.53     -1184.0586    
    114800   300.34897     -218659.32      0             -218218.8      -1339.8923    
    114900   296.75939     -218659.25      0             -218223.99     -1071.2802    
    115000   296.65757     -218656.04      0             -218220.92     -187.87666    
    115100   301.10062     -218659.86      0             -218218.23     -473.31752    
    115200   298.16144     -218651.16      0             -218213.85     -1728.5481    
    115300   305.13083     -218657.48      0             -218209.94     -919.22925    
    115400   303.57315     -218654.83      0             -218209.58     -1216.0572    
    115500   300.44516     -218658.57      0             -218217.9      -2094.9538    
    115600   296.1967      -218655.78      0             -218221.34     -987.72494    
    115700   297.34799     -218653.06      0             -218216.93     -634.52313    
    115800   300.59698     -218653.44      0             -218212.55     -2094.1252    
    115900   300.96485     -218654.43      0             -218213        -1115.9139    
    116000   299.3867      -218657.58      0             -218218.47     -1493.8534    
    116100   297.95971     -218663.33      0             -218226.31     -1293.7069    
    116200   297.37844     -218658.45      0             -218222.28     -1045.7283    
    116300   300.54411     -218657.03      0             -218216.22     -1548.672     
    116400   300.84596     -218655.18      0             -218213.92     -1183.1875    
    116500   298.13166     -218652.13      0             -218214.86     -2282.8073    
    116600   297.599       -218656.67      0             -218220.18     -1809.6579    
    116700   296.64907     -218661.53      0             -218226.43     -1273.481     
    116800   295.67372     -218657.21      0             -218223.54     -1172.6878    
    116900   297.61112     -218652.09      0             -218215.57     -2622.2583    
    117000   302.0377      -218657.57      0             -218214.57     -1164.7487    
    117100   297.76186     -218652.41      0             -218215.67     -1246.8401    
    117200   300.06885     -218657.89      0             -218217.78     -1498.211     
    117300   297.06583     -218656.5       0             -218220.79     -1807.9156    
    117400   294.48606     -218654.55      0             -218222.62     -2028.7342    
    117500   299.46336     -218657.47      0             -218218.24     -934.15186    
    117600   301.83333     -218654.38      0             -218211.68     -1929.7981    
    117700   300.19993     -218651.81      0             -218211.51     -418.61867    
    117800   300.60257     -218657.34      0             -218216.44     -1212.3456    
    117900   297.87238     -218658.43      0             -218221.53     -1139.1584    
    118000   299.0503      -218658.63      0             -218220.01     -1492.4423    
    118100   301.00458     -218658.21      0             -218216.72     -1543.6588    
    118200   302.74302     -218657.52      0             -218213.49     -2131.7776    
    118300   299.89003     -218650.85      0             -218211        -1492.1808    
    118400   299.04961     -218650.2       0             -218211.57     -1434.348     
    118500   297.76799     -218653.32      0             -218216.58     -1208.858     
    118600   297.01751     -218657.17      0             -218221.53     -914.54519    
    118700   298.21364     -218658.9       0             -218221.5      -1251.1784    
    118800   299.76133     -218652.62      0             -218212.96     -2459.6142    
    118900   302.00032     -218653.7       0             -218210.75     -2583.8376    
    119000   300.75451     -218654.75      0             -218213.63     -1573.2379    
    119100   298.19631     -218654.41      0             -218217.04     -2171.1577    
    119200   298.35952     -218657.96      0             -218220.35     -1462.1922    
    119300   294.84746     -218662.31      0             -218229.86     -724.19299    
    119400   297.39416     -218665.08      0             -218228.88     -1125.355     
    119500   298.39008     -218659.2       0             -218221.54     -1283.8863    
    119600   298.93376     -218655.69      0             -218217.24     -652.1857     
    119700   299.74335     -218653.16      0             -218213.52     -1561.5618    
    119800   304.47102     -218657         0             -218210.43     -2039.5709    
    119900   300.87615     -218654.84      0             -218213.54     -2045.9155    
    120000   298.69312     -218660.07      0             -218221.97     -2273.5792    
    120100   299.09104     -218660.43      0             -218221.75     -1510.2085    
    120200   298.09632     -218654.22      0             -218217        -972.81601    
    120300   300.23989     -218653.93      0             -218213.56     -943.09795    
    120400   299.24278     -218652.68      0             -218213.78     -857.04773    
    120500   302.13749     -218658.61      0             -218215.46     -835.1998     
    120600   298.77454     -218655.1       0             -218216.89      170.32774    
    120700   300.08173     -218657.99      0             -218217.85     -858.12059    
    120800   299.36637     -218659.73      0             -218220.65     -647.48716    
    120900   295.46516     -218656.81      0             -218223.44     -1257.9627    
    121000   298.6681      -218659.01      0             -218220.95     -1795.0936    
    121100   303.92954     -218659.1       0             -218213.33     -1409.4789    
    121200   299.86146     -218651.22      0             -218211.41     -987.44599    
    121300   302.81256     -218658.67      0             -218214.53     -2723.0206    
    121400   299.2123      -218660.15      0             -218221.29     -1812.5463    
    121500   295.29843     -218655.85      0             -218222.73     -1616.0537    
    121600   298.05806     -218657.81      0             -218220.64     -2083.4141    
    121700   299.56968     -218656.27      0             -218216.89     -2570.7397    
    121800   299.02038     -218652.26      0             -218213.69     -1472.2125    
    121900   302.1636      -218654.31      0             -218211.13     -1101.0196    
    122000   299.90616     -218652.19      0             -218212.31     -420.95578    
    122100   301.14522     -218661.88      0             -218220.19     -871.77745    
    122200   297.73324     -218659.37      0             -218222.68     -1222.5127    
    122300   296.57467     -218654.9       0             -218219.91     -989.60136    
    122400   301.66092     -218654.81      0             -218212.36     -1173.716     
    122500   303.77954     -218654.94      0             -218209.38     -395.27547    
    122600   302.73789     -218656.78      0             -218212.75     -1171.85      
    122700   299.62629     -218655.94      0             -218216.48     -2268.2479    
    122800   301.72784     -218661.36      0             -218218.81     -2163.0784    
    122900   298.78886     -218659.56      0             -218221.33     -2815.6693    
    123000   300.88748     -218662.23      0             -218220.92     -2224.6252    
    123100   302.35536     -218659.72      0             -218216.25     -1239.7209    
    123200   299.92329     -218650.9       0             -218210.99     -1881.1625    
    123300   301.08378     -218653.98      0             -218212.38     -1676.2808    
    123400   299.18254     -218659.22      0             -218220.41     -1050.4269    
    123500   294.4747      -218654.15      0             -218222.24     -1589.2716    
    123600   298.57736     -218657.17      0             -218219.24     -1286.3496    
    123700   299.17031     -218654.97      0             -218216.17     -1007.7077    
    123800   303.55473     -218658.85      0             -218213.62     -1761.2907    
    123900   304.29519     -218656.11      0             -218209.8      -2092.0792    
    124000   303.1956      -218655.43      0             -218210.73     -2386.545     
    124100   303.08165     -218662.77      0             -218218.24     -1224.9821    
    124200   295.90167     -218656.95      0             -218222.95     -998.13708    
    124300   297.70318     -218657.63      0             -218220.98     -1.3152989    
    124400   298.05597     -218652.71      0             -218215.55     -1061.5882    
    124500   302.31703     -218652.89      0             -218209.48     -1567.1562    
    124600   302.55476     -218654.55      0             -218210.79     -1736.5567    
    124700   302.37465     -218657.47      0             -218213.97     -1699.807     
    124800   295.80871     -218651.34      0             -218217.47     -1489.5568    
    124900   297.55543     -218655.96      0             -218219.53     -1393.7162    
    125000   297.16895     -218659.31      0             -218223.45     -465.22523    
    125100   299.62614     -218665.1       0             -218225.64     -689.13298    
    125200   299.0083      -218658.55      0             -218219.99     -213.33417    
    125300   301.42355     -218655.37      0             -218213.26     -1252.0505    
    125400   302.46446     -218656.83      0             -218213.2      -1564.8023    
    125500   301.42262     -218660.11      0             -218218.01     -2086.4432    
    125600   297.41287     -218660.5       0             -218224.28     -1720.9309    
    125700   295.74035     -218656.83      0             -218223.06     -840.72807    
    125800   299.18189     -218658.54      0             -218219.73     -1774.6843    
    125900   301.21746     -218658.03      0             -218216.23     -465.06286    
    126000   301.09569     -218654.97      0             -218213.34     -1022.3575    
    126100   300.65524     -218654.68      0             -218213.7      -1255.797     
    126200   296.2488      -218655.04      0             -218220.53     -383.68636    
    126300   296.48031     -218658.87      0             -218224.01     -433.64456    
    126400   299.42678     -218661.37      0             -218222.2      -1871.0614    
    126500   303.07689     -218659.03      0             -218214.5      -527.41654    
    126600   299.76266     -218651.75      0             -218212.08     -961.01129    
    126700   300.67732     -218655.88      0             -218214.87     -593.72359    
    126800   301.34034     -218659.26      0             -218217.28     -1051.3818    
    126900   298.61498     -218656.55      0             -218218.57     -2485.5228    
    127000   298.58329     -218656.62      0             -218218.68     -1573.3206    
    127100   297.51982     -218653.83      0             -218217.46     -1775.9973    
    127200   303.36274     -218655.46      0             -218210.51     -2567.5128    
    127300   301.51349     -218652.13      0             -218209.9      -1739.8298    
    127400   300.78769     -218658.59      0             -218217.42     -1227.2212    
    127500   298.43304     -218658.86      0             -218221.14     -1317.539     
    127600   300.16437     -218660.34      0             -218220.08     -1072.0736    
    127700   300.9937      -218658.13      0             -218216.66     -1062.6587    
    127800   302.64727     -218652.86      0             -218208.96     -1851.4005    
    127900   302.34948     -218649.85      0             -218206.39     -1440.242     
    128000   303.83192     -218660.44      0             -218214.81     -1577.1197    
    128100   300.88452     -218658.94      0             -218217.63     -1899.95      
    128200   301.97189     -218663.48      0             -218220.57     -1328.0085    
    128300   298.48455     -218660.16      0             -218222.37     -1941.9531    
    128400   299.06726     -218659.63      0             -218220.99     -2729.2523    
    128500   302.07664     -218656.67      0             -218213.61     -2306.9637    
    128600   298.40822     -218649.52      0             -218211.84     -2170.8576    
    128700   300.00576     -218655.96      0             -218215.93     -2287.3664    
    128800   295.90638     -218656.88      0             -218222.87     -1214.5619    
    128900   296.94289     -218658.84      0             -218223.31     -2377.0223    
    129000   298.69034     -218658.9       0             -218220.81     -1644.4281    
    129100   300.35427     -218657.9       0             -218217.36     -1298.0387    
    129200   302.6256      -218658.01      0             -218214.14     -1042.072     
    129300   302.0438      -218656.31      0             -218213.29     -1193.1954    
    129400   301.07885     -218659.05      0             -218217.45     -1210.1123    
    129500   296.40139     -218658.35      0             -218223.61     -1694.8664    
    129600   297.43438     -218661.03      0             -218224.78     -1605.1193    
    129700   302.33835     -218662.46      0             -218219.01     -1692.1526    
    129800   302.2735      -218655.84      0             -218212.49     -2473.7941    
    129900   299.55467     -218652.64      0             -218213.27     -3020.368     
    130000   301.11786     -218659.25      0             -218217.59     -2264.9147    
    130100   298.28264     -218659.16      0             -218221.66     -753.69903    
    130200   296.17953     -218656.12      0             -218221.71     -950.01191    
    130300   303.20604     -218657.41      0             -218212.7      -2347.8708    
    130400   301.93752     -218652.24      0             -218209.39     -1532.3614    
    130500   302.05424     -218657.95      0             -218214.92     -2068.4172    
    130600   296.83835     -218656.92      0             -218221.54     -1150.6125    
    130700   298.34758     -218660.09      0             -218222.5      -761.14894    
    130800   299.23303     -218657.74      0             -218218.85     -478.94194    
    130900   301.30628     -218654.9       0             -218212.97     -1836.9622    
    131000   306.27845     -218656         0             -218206.78     -1264.6973    
    131100   302.06751     -218648.62      0             -218205.58     -1497.8263    
    131200   304.09453     -218661.21      0             -218215.19     -1879.3745    
    131300   303.07926     -218664.82      0             -218220.29     -1637.4351    
    131400   297.8513      -218658.78      0             -218221.92     -1339.2964    
    131500   301.02494     -218661.51      0             -218219.99     -2542.2171    
    131600   299.02797     -218652.7       0             -218214.11     -563.33137    
    131700   302.68429     -218654.01      0             -218210.06     -1019.3198    
    131800   300.65565     -218656.97      0             -218215.99     -827.04737    
    131900   298.7792      -218661.25      0             -218223.02     -334.02556    
    132000   297.19941     -218658.53      0             -218222.62     -693.48625    
    132100   301.23104     -218660.17      0             -218218.35     -1631.4213    
    132200   303.79658     -218658.99      0             -218213.4      -527.90386    
    132300   302.35465     -218655.85      0             -218212.38     -1948.8674    
    132400   297.41624     -218658.28      0             -218222.06     -1226.7069    
    132500   301.46034     -218667.51      0             -218225.36     -584.52977    
    132600   299.1573      -218660.12      0             -218221.35     -1491.1678    
    132700   300.13538     -218656.1       0             -218215.89     -952.12697    
    132800   301.86654     -218657.1       0             -218214.34     -1728.2064    
    132900   300.56927     -218657.65      0             -218216.8      -1506.628     
    133000   295.19309     -218659.94      0             -218226.97     -1275.0432    
    133100   300.32769     -218669.18      0             -218228.68     -1388.6088    
    133200   296.43909     -218657.81      0             -218223.02     -301.77014    
    133300   298.11668     -218655.3       0             -218218.05     -1212.5581    
    133400   298.87188     -218653.44      0             -218215.08     -2488.2537    
    133500   299.17328     -218653.93      0             -218215.13     -1226.6507    
    133600   297.51131     -218659.49      0             -218223.13     -1644.1717    
    133700   296.13444     -218661.61      0             -218227.26     -1346.8066    
    133800   299.08329     -218661.83      0             -218223.16     -470.42566    
    133900   297.87297     -218654.46      0             -218217.57     -1582.2914    
    134000   301.07522     -218657.87      0             -218216.28     -243.84203    
    134100   298.40696     -218654.59      0             -218216.91     -1707.5884    
    134200   299.64396     -218660.24      0             -218220.75     -1014.4297    
    134300   296.44561     -218664.73      0             -218229.93     -1569.3644    
    134400   298.33933     -218667.41      0             -218229.84     -972.98727    
    134500   296.91235     -218659.8       0             -218224.31     -1419.3465    
    134600   299.25412     -218658.95      0             -218220.03     -2128.7252    
    134700   299.51387     -218655.41      0             -218216.11     -1657.5118    
    134800   302.12571     -218656.51      0             -218213.38     -902.02875    
    134900   300.34785     -218657.5       0             -218216.97     -18.24617     
    135000   298.69667     -218664.32      0             -218226.22     -1317.8433    
    135100   298.39218     -218662.84      0             -218225.18     -1921.4058    
    135200   301.09085     -218661         0             -218219.39     -1030.9518    
    135300   298.36407     -218654.61      0             -218216.99     -2216.847     
    135400   300.22818     -218656.54      0             -218216.19     -2538.7988    
    135500   302.0738      -218660.51      0             -218217.45     -1739.3789    
    135600   296.96723     -218662.93      0             -218227.36     -1454.842     
    135700   298.13078     -218666.42      0             -218229.15     -803.42552    
    135800   298.40543     -218661.07      0             -218223.4      -1755.0787    
    135900   299.58713     -218657.88      0             -218218.47     -1004.4388    
    136000   300.62511     -218657.52      0             -218216.59     -1594.9198    
    136100   302.88454     -218661.66      0             -218217.42     -1215.2695    
    136200   296.95595     -218659.42      0             -218223.88     -1274.7819    
    136300   296.5098      -218664.1       0             -218229.2      -720.65325    
    136400   296.94988     -218659.38      0             -218223.84     -601.11223    
    136500   300.70372     -218659.46      0             -218218.42     -1127.1773    
    136600   300.53799     -218657.49      0             -218216.68     -1294.3609    
    136700   300.60449     -218657.42      0             -218216.52     -1554.9499    
    136800   298.56864     -218657.73      0             -218219.82     -1984.0078    
    136900   294.22885     -218657.62      0             -218226.07     -2021.7636    
    137000   299.7106      -218664.31      0             -218224.72     -2136.6217    
    137100   302.27093     -218658.29      0             -218214.95     -1859.8446    
    137200   301.85673     -218656.74      0             -218214        -1482.206     
    137300   299.59789     -218656.98      0             -218217.56     -1336.2295    
    137400   297.7499      -218659.36      0             -218222.64     -1620.1785    
    137500   297.22347     -218660.04      0             -218224.1      -1039.869     
    137600   300.0914      -218656.35      0             -218216.21     -411.59806    
    137700   304.90278     -218658.17      0             -218210.97     -1837.8888    
    137800   299.97586     -218654.61      0             -218214.63     -1803.7899    
    137900   296.9748      -218655.82      0             -218220.24     -1848.3408    
    138000   296.5841      -218657.41      0             -218222.41     -1494.1301    
    138100   298.19935     -218657.74      0             -218220.36     -2313.7086    
    138200   301.29867     -218657.53      0             -218215.61     -855.75745    
    138300   304.95291     -218653.2       0             -218205.92     -1680.691     
    138400   305.35447     -218650.66      0             -218202.79     -1885.3108    
    138500   300.15678     -218651.25      0             -218211.01     -1770.4928    
    138600   301.76546     -218658.98      0             -218216.38     -1764.153     
    138700   301.17795     -218662.73      0             -218220.99     -2108.4564    
    138800   296.99453     -218659.44      0             -218223.83     -804.83283    
    138900   299.26777     -218660.62      0             -218221.68     -1392.4181    
    139000   303.30128     -218657.58      0             -218212.72     -333.22455    
    139100   306.51874     -218660.41      0             -218210.83     -1503.1031    
    139200   302.27408     -218659.73      0             -218216.38     -1679.8542    
    139300   300.34235     -218661         0             -218220.48     -388.05923    
    139400   299.23008     -218660.07      0             -218221.19     -1413.3938    
    139500   298.82455     -218656.1       0             -218217.81     -1455.2807    
    139600   299.79237     -218653.85      0             -218214.14     -1938.9154    
    139700   304.89584     -218654.84      0             -218207.65     -894.1703     
    139800   304.90995     -218653.97      0             -218206.76     -616.31451    
    139900   300.69444     -218656.91      0             -218215.88     -1231.7832    
    140000   299.21844     -218658.55      0             -218219.69     -1219.1658    
    140100   298.267       -218659.54      0             -218222.07     -1636.184     
    140200   299.718       -218662.41      0             -218222.81     -1763.4179    
    140300   300.64539     -218659.24      0             -218218.28     -1166.4174    
    140400   300.59263     -218652.66      0             -218211.78     -45.466825    
    140500   299.77976     -218653.06      0             -218213.37     -1336.5484    
    140600   298.46097     -218658.23      0             -218220.48     -1697.8616    
    140700   297.93498     -218660.58      0             -218223.59     -1700.7465    
    140800   298.75533     -218659.26      0             -218221.07     -1605.4434    
    140900   299.9469      -218657.61      0             -218217.67     -2913.615     
    141000   300.5025      -218655.34      0             -218214.59     -2940.5261    
    141100   303.1133      -218657.04      0             -218212.46     -1422.6758    
    141200   299.86521     -218653.54      0             -218213.73     -1332.3631    
    141300   295.96003     -218655.59      0             -218221.5      -1646.9642    
    141400   297.73206     -218661.44      0             -218224.75     -535.87663    
    141500   301.42478     -218664.27      0             -218222.17      103.73098    
    141600   300.34631     -218655.35      0             -218214.83     -891.14522    
    141700   300.53675     -218653.98      0             -218213.18     -234.69982    
    141800   303.40793     -218660.12      0             -218215.11     -1120.6734    
    141900   297.57381     -218654.75      0             -218218.29     -1908.9888    
    142000   299.88676     -218661.31      0             -218221.46     -1579.7546    
    142100   298.31317     -218661.07      0             -218223.53     -1894.4804    
    142200   297.83904     -218662.59      0             -218225.75     -1903.2028    
    142300   299.08398     -218662.38      0             -218223.71     -1102.3708    
    142400   300.62127     -218656.97      0             -218216.04     -1863.0466    
    142500   300.57687     -218655.31      0             -218214.45     -1172.4979    
    142600   299.55406     -218657.35      0             -218217.99     -37.423851    
    142700   298.73572     -218662.44      0             -218224.28     -1314.5951    
    142800   299.20066     -218665.22      0             -218226.37     -1756.44      
    142900   302.50264     -218661.29      0             -218217.6      -726.23199    
    143000   302.53594     -218655.69      0             -218211.95     -1419.19      
    143100   301.9761      -218656.87      0             -218213.96     -1598.0477    
    143200   298.67885     -218658.82      0             -218220.74     -1271.5143    
    143300   298.81464     -218661.88      0             -218223.61     -1238.0521    
    143400   296.34246     -218655.67      0             -218221.02     -1075.1661    
    143500   301.7956      -218655.47      0             -218212.82     -1386.216     
    143600   304.4282      -218655.2       0             -218208.69     -2324.8588    
    143700   303.33605     -218657.28      0             -218212.37     -2686.1701    
    143800   299.18231     -218656.38      0             -218217.57     -1625.4388    
    143900   297.4564      -218657.2       0             -218220.92     -1127.812     
    144000   300.24534     -218662.44      0             -218222.07     -683.75033    
    144100   300.96378     -218658.92      0             -218217.49     -1502.0434    
    144200   304.79742     -218657.4       0             -218210.35     -1998.9439    
    144300   301.11378     -218656.61      0             -218214.96     -1306.0628    
    144400   298.8976      -218658.39      0             -218219.99     -1325.9767    
    144500   299.23075     -218660.1       0             -218221.22     -1875.8282    
    144600   298.22732     -218657.9       0             -218220.49     -1352.9393    
    144700   299.62573     -218658.82      0             -218219.36     -1263.4074    
    144800   299.42289     -218655.27      0             -218216.1      -1703.274     
    144900   303.37134     -218659.32      0             -218214.36     -366.47984    
    145000   300.87584     -218659.78      0             -218218.49     -427.22958    
    145100   297.5932      -218661.32      0             -218224.83     -1835.3549    
    145200   296.7339      -218660.96      0             -218225.74     -1565.824     
    145300   295.77235     -218656.05      0             -218222.24     -1196.4595    
    145400   299.48666     -218656.74      0             -218217.48     -1422.0368    
    145500   302.12655     -218660.26      0             -218217.13     -2197.8499    
    145600   300.1021      -218659.97      0             -218219.8      -1744.4736    
    145700   298.77664     -218661.44      0             -218223.22     -1334.7779    
    145800   298.44093     -218664.72      0             -218226.99     -503.99587    
    145900   295.22782     -218658.74      0             -218225.73     -579.3892     
    146000   300.84284     -218658.09      0             -218216.84     -1450.7069    
    146100   303.00941     -218659.31      0             -218214.89     -2083.9767    
    146200   296.75335     -218654.52      0             -218219.27     -1766.0027    
    146300   298.41911     -218661.55      0             -218223.86     -2104.9538    
    146400   295.23846     -218661.03      0             -218228        -1446.1306    
    146500   294.77423     -218665.53      0             -218233.18     -2534.6812    
    146600   299.47741     -218668.01      0             -218228.76     -1608.2071    
    146700   302.05929     -218664.25      0             -218221.22     -1861.1207    
    146800   301.47039     -218659.23      0             -218217.06     -2215.2531    
    146900   302.55149     -218660.53      0             -218216.77     -1447.3476    
    147000   298.87056     -218659.33      0             -218220.98     -1020.3004    
    147100   299.13987     -218667.39      0             -218228.64     -2074.6922    
    147200   294.26884     -218659.88      0             -218228.28     -1208.5621    
    147300   300.14928     -218663.56      0             -218223.33     -991.32576    
    147400   300.69113     -218661.75      0             -218220.72     -1068.5925    
    147500   298.71377     -218656.63      0             -218218.5      -156.72402    
    147600   300.87951     -218659.99      0             -218218.68     -1104.0302    
    147700   301.81793     -218663.36      0             -218220.68     -1802.5016    
    147800   298.06856     -218663.13      0             -218225.95     -205.95107    
    147900   296.47853     -218662.29      0             -218227.44     -1708.1291    
    148000   297.37966     -218657.24      0             -218221.07     -1496.9882    
    148100   301.50136     -218658.51      0             -218216.3      -509.49633    
    148200   298.60491     -218655.19      0             -218217.22     -759.36174    
    148300   297.70971     -218656.28      0             -218219.63     -858.73788    
    148400   299.16237     -218661.66      0             -218222.87     -1567.7579    
    148500   294.64575     -218664.91      0             -218232.74     -2636.9076    
    148600   296.08601     -218666.15      0             -218231.88     -1148.8504    
    148700   296.80298     -218660.29      0             -218224.96     -1814.1963    
    148800   300.36017     -218661.39      0             -218220.84     -1507.0795    
    148900   299.04038     -218657.68      0             -218219.07     -524.925      
    149000   302.41106     -218660.6       0             -218217.05     -459.33847    
    149100   300.14007     -218660.08      0             -218219.86     -913.63353    
    149200   297.41699     -218663.58      0             -218227.35     -1042.7072    
    149300   297.01882     -218663.61      0             -218227.97     -1586.9388    
    149400   302.77474     -218665.9       0             -218221.82     -2187.9574    
    149500   301.37108     -218660.24      0             -218218.22     -1236.2035    
    149600   298.14602     -218654.92      0             -218217.63     -2121.3502    
    149700   301.18415     -218661.12      0             -218219.37     -2140.5924    
    149800   299.18641     -218662.13      0             -218223.31     -2906.8869    
    149900   298.4785      -218665.2       0             -218227.42     -3071.8192    
    150000   295.87896     -218666.52      0             -218232.55     -881.53775    
    150100   297.3262      -218665.16      0             -218229.07     -1947.2936    
    150200   299.72831     -218661.15      0             -218221.54     -914.21742    
    150300   305.07923     -218666.29      0             -218218.83     -131.46918    
    150400   301.47483     -218660.35      0             -218218.18     -733.03754    
    150500   300.17956     -218661.41      0             -218221.13     -916.79211    
    150600   298.70817     -218666         0             -218227.88     -1650.3818    
    150700   295.28152     -218662.13      0             -218229.04     -1486.8885    
    150800   300.37509     -218661.42      0             -218220.86     -2299.8299    
    150900   302.49534     -218662.42      0             -218218.75     -1459.784     
    151000   300.71054     -218660.82      0             -218219.76     -1449.3854    
    151100   299.4751      -218661.14      0             -218221.89     -547.38474    
    151200   297.97239     -218662.66      0             -218225.62     -2164.4029    
    151300   295.52392     -218663.39      0             -218229.94     -1449.1496    
    151400   297.4907      -218662.7       0             -218226.36     -1648.1445    
    151500   300.17692     -218658.15      0             -218217.88     -1984.5049    
    151600   303.29369     -218660.68      0             -218215.83     -2568.6393    
    151700   299.06326     -218658.47      0             -218219.83     -1305.2849    
    151800   298.26737     -218662.67      0             -218225.19     -1637.7031    
    151900   296.79203     -218661.9       0             -218226.59     -887.13589    
    152000   303.97885     -218661.79      0             -218215.94     -1484.9316    
    152100   299.50743     -218653.82      0             -218214.53     -1027.504     
    152200   302.36871     -218663.2       0             -218219.71      168.84368    
    152300   298.95418     -218662.98      0             -218224.5      -1357.4844    
    152400   299.09624     -218663.66      0             -218224.97     -1405.915     
    152500   302.75662     -218662.53      0             -218218.47     -1715.6494    
    152600   305.56616     -218659.7       0             -218211.52     -2408.9519    
    152700   301.43502     -218655.86      0             -218213.74     -3043.5854    
    152800   303.02983     -218662.36      0             -218217.9      -2507.4719    
    152900   297.83213     -218658.05      0             -218221.21     -1438.8544    
    153000   299.09845     -218661.13      0             -218222.44     -212.56153    
    153100   299.08184     -218660.24      0             -218221.57     -724.99338    
    153200   303.14694     -218662.41      0             -218217.78     -924.27805    
    153300   302.49878     -218655.51      0             -218211.83     -571.10807    
    153400   302.37471     -218657.94      0             -218214.45     -910.46983    
    153500   299.28935     -218661.4       0             -218222.43     -1206.9092    
    153600   300.57639     -218664.62      0             -218223.76     -1405.0355    
    153700   296.12755     -218656.78      0             -218222.44     -950.36099    
    153800   301.27769     -218659.37      0             -218217.48     -1965.5448    
    153900   300.80276     -218652.23      0             -218211.04     -1584.0708    
    154000   305.18878     -218659         0             -218211.38     -1726.8529    
    154100   299.66105     -218661.28      0             -218221.76     -1724.1029    
    154200   298.2395      -218660.58      0             -218223.15     -1704.0674    
    154300   297.54112     -218658.49      0             -218222.08     -121.80846    
    154400   299.05119     -218658.63      0             -218220.01     -385.98832    
    154500   306.03707     -218664.36      0             -218215.49     -1523.5771    
    154600   301.45464     -218654.87      0             -218212.72     -885.73086    
    154700   301.0067      -218659.66      0             -218218.17     -590.51842    
    154800   297.77841     -218662.1       0             -218225.34     -1711.5976    
    154900   298.21611     -218661.25      0             -218223.86     -478.488      
    155000   301.69413     -218661.36      0             -218218.86     -1385.749     
    155100   301.65496     -218657.8       0             -218215.36     -160.2124     
    155200   301.13276     -218658.52      0             -218216.85     -1420.6973    
    155300   299.01004     -218663.69      0             -218225.12     -1515.2386    
    155400   297.6876      -218663.54      0             -218226.92     -1083.5445    
    155500   300.35749     -218663.42      0             -218222.88     -931.02403    
    155600   302.92117     -218660.87      0             -218216.57     -618.69414    
    155700   302.07745     -218659.82      0             -218216.76     -610.76191    
    155800   299.62038     -218658.58      0             -218219.12     -982.50016    
    155900   298.4494      -218659.33      0             -218221.59     -1369.3024    
    156000   299.98721     -218661.78      0             -218221.79     -349.98234    
    156100   298.53671     -218659.41      0             -218221.55     -547.88382    
    156200   299.17957     -218658.98      0             -218220.17     -2590.2214    
    156300   304.05558     -218663.46      0             -218217.49     -1527.6328    
    156400   303.19067     -218662.43      0             -218217.74     -327.79178    
    156500   302.82052     -218666.49      0             -218222.34     -1255.0132    
    156600   299.4627      -218665.6       0             -218226.38     -1438.0198    
    156700   298.69422     -218663.86      0             -218225.76     -1291.5928    
    156800   303.53712     -218662.85      0             -218217.65     -1674.8208    
    156900   299.51255     -218654.06      0             -218214.76     -517.47627    
    157000   300.25574     -218658.71      0             -218218.32     -1710.2881    
    157100   298.33328     -218659.78      0             -218222.21     -1730.101     
    157200   297.3583      -218659.09      0             -218222.95     -435.8022     
    157300   301.15771     -218663.9       0             -218222.19     -824.15865    
    157400   299.45227     -218661.08      0             -218221.87     -577.23752    
    157500   299.91977     -218661.45      0             -218221.56     -985.9394     
    157600   301.4637      -218662.96      0             -218220.8      -908.31334    
    157700   303.47847     -218662.95      0             -218217.83     -1954.2875    
    157800   300.59936     -218654.92      0             -218214.03     -1778.7189    
    157900   305.72576     -218662.26      0             -218213.85     -918.44445    
    158000   298.27263     -218658.27      0             -218220.79     -1938.4189    
    158100   299.43482     -218664.54      0             -218225.35     -1200.0477    
    158200   299.48847     -218664.21      0             -218224.95     -1785.9601    
    158300   298.65979     -218658.36      0             -218220.31     -605.54798    
    158400   301.26836     -218657.4       0             -218215.53     -1365.4951    
    158500   298.96579     -218655.22      0             -218216.73     -1313.5564    
    158600   300.80579     -218659.9       0             -218218.71     -844.21692    
    158700   301.19588     -218664.75      0             -218222.98     -224.09424    
    158800   302.12339     -218669.19      0             -218226.07     -899.14984    
    158900   297.53279     -218662.59      0             -218226.2      -903.80352    
    159000   302.31379     -218661.78      0             -218218.37     -786.84179    
    159100   301.45175     -218656.85      0             -218214.71     -1142.7062    
    159200   299.61351     -218657.22      0             -218217.77     -2176.829     
    159300   297.2832      -218660.14      0             -218224.11     -1730.4421    
    159400   297.02617     -218661.08      0             -218225.43     -1953.5902    
    159500   297.85467     -218660.5       0             -218223.63     -1922.8003    
    159600   296.34437     -218656.83      0             -218222.17     -851.95322    
    159700   300.46129     -218659.39      0             -218218.7      -256.33363    
    159800   306.35628     -218663.65      0             -218214.31     -929.27583    
    159900   307.30224     -218658.66      0             -218207.94     -962.42328    
    160000   303.93515     -218657.52      0             -218211.73     -733.67008    
    160100   300.82426     -218661.6       0             -218220.38     -1659.51      
    160200   298.61036     -218660.7       0             -218222.73     -1002.9442    
    160300   301.02015     -218665.11      0             -218223.6      -1407.3845    
    160400   301.08797     -218664.85      0             -218223.24     -1236.777     
    160500   305.64027     -218666.47      0             -218218.18     -1575.2371    
    160600   299.48686     -218652.44      0             -218213.18     -1806.9087    
    160700   302.56805     -218656.29      0             -218212.51     -1426.2408    
    160800   300.48812     -218662.71      0             -218221.98     -1151.3128    
    160900   298.65484     -218663.45      0             -218225.41     -1918.517     
    161000   297.37367     -218658.66      0             -218222.5      -2026.6195    
    161100   298.87878     -218655.09      0             -218216.72     -2025.6355    
    161200   302.21516     -218658.31      0             -218215.04     -1891.3024    
    161300   300.86578     -218661.76      0             -218220.48     -1501.8245    
    161400   296.47875     -218664.37      0             -218229.52     -558.05487    
    161500   297.52421     -218662.78      0             -218226.4      -1022.5485    
    161600   299.69335     -218659.62      0             -218220.06     -847.21008    
    161700   300.20376     -218657.27      0             -218216.96     -2033.4138    
    161800   302.08324     -218660.35      0             -218217.28     -1361.4051    
    161900   300.09685     -218665.4       0             -218225.24     -1420.3582    
    162000   296.74818     -218664.76      0             -218229.51     -1751.5095    
    162100   296.6733      -218660.1       0             -218224.97     -1828.0211    
    162200   300.07384     -218659.68      0             -218219.55     -2053.2828    
    162300   299.06266     -218656.18      0             -218217.54     -2585.7937    
    162400   297.40933     -218655.47      0             -218219.25     -1911.4332    
    162500   298.82284     -218662.62      0             -218224.34     -1380.4306    
    162600   295.4824      -218667         0             -218233.61     -1673.1218    
    162700   298.87318     -218669.61      0             -218231.25     -1897.8993    
    162800   299.74494     -218665.19      0             -218225.55     -386.76818    
    162900   299.92865     -218661.62      0             -218221.71     -2012.4165    
    163000   298.01848     -218656.84      0             -218219.74     -553.87656    
    163100   297.49096     -218655.84      0             -218219.51     -1286.9417    
    163200   300.85735     -218662.9       0             -218221.63     -1156.7532    
    163300   297.18452     -218661.64      0             -218225.76     -1367.1213    
    163400   297.30974     -218663.33      0             -218227.26     -2222.9692    
    163500   298.70079     -218660.75      0             -218222.64     -2350.0854    
    163600   299.59351     -218654.88      0             -218215.46     -2213.9605    
    163700   301.18088     -218656.42      0             -218214.67     -2778.2989    
    163800   298.36039     -218656.17      0             -218218.56     -1920.2042    
    163900   297.45786     -218659.54      0             -218223.25      227.37323    
    164000   298.69304     -218661.93      0             -218223.84     -846.49597    
    164100   304.17285     -218667.92      0             -218221.78     -603.76542    
    164200   300.64983     -218661.36      0             -218220.4      -1911.3727    
    164300   302.55545     -218659.83      0             -218216.06     -1133.7936    
    164400   303.65998     -218654.75      0             -218209.37     -837.455      
    164500   303.20611     -218657.14      0             -218212.42     -2497.439     
    164600   295.85286     -218654.31      0             -218220.38     -1896.7668    
    164700   299.51175     -218661.31      0             -218222.02     -1084.1926    
    164800   298.28478     -218660.95      0             -218223.46     -1255.1499    
    164900   299.26721     -218662.44      0             -218223.5      -2149.0682    
    165000   299.24073     -218659.46      0             -218220.56     -2343.5838    
    165100   301.7949      -218657.07      0             -218214.42     -1187.5745    
    165200   301.71509     -218657.03      0             -218214.5      -2062.9153    
    165300   300.39192     -218663.66      0             -218223.07     -1667.4476    
    165400   298.5701      -218664.3       0             -218226.38     -1748.236     
    165500   301.87183     -218667.25      0             -218224.49     -964.2995     
    165600   302.01092     -218663.38      0             -218220.42     -1812.0984    
    165700   299.17168     -218654.94      0             -218216.14     -2023.2251    
    165800   303.95821     -218654.04      0             -218208.22     -2165.6827    
    165900   306.41045     -218656.19      0             -218206.77     -2786.2877    
    166000   299.07082     -218656.6       0             -218217.95     -1161.5118    
    166100   301.24775     -218663.73      0             -218221.89     -727.14702    
    166200   301.13905     -218667.62      0             -218225.94     -1555.9286    
    166300   297.14375     -218663.14      0             -218227.32     -1009.3254    
    166400   301.03842     -218663.49      0             -218221.96     -1492.8049    
    166500   301.24629     -218657.49      0             -218215.65     -1619.1366    
    166600   303.78462     -218661.78      0             -218216.21     -2148.3313    
    166700   299.21051     -218658.3       0             -218219.44     -2084.7276    
    166800   303.09437     -218665.33      0             -218220.77     -1182.6302    
    166900   298.56        -218660.17      0             -218222.27     -1436.6063    
    167000   303.55417     -218667.77      0             -218222.54     -2075.6391    
    167100   296.79864     -218662.11      0             -218226.8      -627.65785    
    167200   294.58906     -218665.17      0             -218233.09     -1562.6818    
    167300   299.91614     -218669.94      0             -218230.05     -1903.394     
    167400   296.91723     -218657.78      0             -218222.29     -2300.35      
    167500   300.31577     -218660.02      0             -218219.54     -1764.3118    
    167600   302.45865     -218662.57      0             -218218.95     -1702.6733    
    167700   300.06631     -218663.63      0             -218223.52     -1582.163     
    167800   300.09522     -218670.28      0             -218230.13     -1787.1902    
    167900   296.90927     -218665.17      0             -218229.69     -2016.5414    
    168000   301.0035      -218662.69      0             -218221.2      -1676.0703    
    168100   300.38109     -218660.62      0             -218220.05     -1453.4822    
    168200   301.26507     -218662.74      0             -218220.87     -1573.255     
    168300   299.47917     -218661.8       0             -218222.55     -1416.1811    
    168400   302.37921     -218668.44      0             -218224.94     -963.3737     
    168500   296.07907     -218663.54      0             -218229.28     -1060.3579    
    168600   298.649       -218663.67      0             -218225.63     -1899.8334    
    168700   302.97958     -218662.47      0             -218218.08     -2107.9811    
    168800   301.70136     -218659.67      0             -218217.16     -2518.5459    
    168900   301.94115     -218663.58      0             -218220.72     -1450.2384    
    169000   298.41635     -218662.62      0             -218224.93     -1055.8456    
    169100   299.36683     -218664.26      0             -218225.17     -1069.3274    
    169200   298.92516     -218662.36      0             -218223.92     -2953.7398    
    169300   300.11382     -218661.22      0             -218221.04     -1822.0113    
    169400   302.21509     -218662.15      0             -218218.88     -1355.7968    
    169500   299.89246     -218661.66      0             -218221.8      -1942.9506    
    169600   298.42505     -218666.38      0             -218228.68     -1853.4315    
    169700   298.60821     -218667.88      0             -218229.9      -707.02492    
    169800   301.84159     -218665.3       0             -218222.58     -455.21999    
    169900   301.4018      -218660.97      0             -218218.9      -1131.6357    
    170000   300.11521     -218659.92      0             -218219.74     -1424.1929    
    170100   302.28945     -218665.06      0             -218221.69     -2188.0349    
    170200   296.75805     -218662.22      0             -218226.96     -2071.986     
    170300   295.39284     -218665.63      0             -218232.38     -2420.5128    
    170400   293.63538     -218661.9       0             -218231.22     -1577.8518    
    170500   298.8452      -218659.72      0             -218221.4      -1911.9258    
    170600   300.36625     -218659.42      0             -218218.87     -1234.9714    
    170700   301.15047     -218661.28      0             -218219.58     -1375.9366    
    170800   296.96924     -218660.64      0             -218225.07     -1518.2434    
    170900   297.94238     -218666.98      0             -218229.98     -2307.4795    
    171000   294.81356     -218662.93      0             -218230.53     -339.16549    
    171100   301.26313     -218662.91      0             -218221.04     -1594.7723    
    171200   300.97867     -218658.69      0             -218217.24     -2300.2132    
    171300   301.32934     -218661.65      0             -218219.69     -850.80124    
    171400   300.32629     -218666.98      0             -218226.48     -382.14765    
    171500   299.53055     -218666.46      0             -218227.14     -1364.9817    
    171600   297.65869     -218661.3       0             -218224.72     -1829.7092    
    171700   299.59395     -218662.37      0             -218222.95     -1897.7513    
    171800   296.96511     -218658.27      0             -218222.7      -2487.831     
    171900   299.43307     -218662.09      0             -218222.91     -1654.5999    
    172000   300.38017     -218664.39      0             -218223.81     -1547.0561    
    172100   301.08388     -218668.97      0             -218227.37     -1253.1047    
    172200   298.06751     -218666.98      0             -218229.8      -373.60944    
    172300   297.65969     -218663.32      0             -218226.74     -433.63006    
    172400   302.8386      -218664.32      0             -218220.14     -1457.6611    
    172500   303.10401     -218663.93      0             -218219.36     -966.2936     
    172600   301.47565     -218666.47      0             -218224.29     -1452.0812    
    172700   296.03887     -218666.89      0             -218232.69     -1862.9526    
    172800   296.37836     -218665.34      0             -218230.64     -1481.3256    
    172900   298.02608     -218662.1       0             -218224.98     -1213.0475    
    173000   301.91873     -218664.22      0             -218221.39     -1625.3478    
    173100   300.44943     -218661.78      0             -218221.11     -1234.0597    
    173200   299.16464     -218664.48      0             -218225.69     -1861.461     
    173300   296.63607     -218668.74      0             -218233.66     -1026.1585    
    173400   296.68582     -218666.04      0             -218230.89     -1677.4627    
    173500   300.72146     -218666.92      0             -218225.85     -2447.6363    
    173600   299.2841      -218662.45      0             -218223.48     -996.60884    
    173700   302.11975     -218664.67      0             -218221.54     -2563.0472    
    173800   299.96267     -218661.13      0             -218221.17     -1846.1953    
    173900   297.56185     -218663.61      0             -218227.17     -1088.3297    
    174000   295.43541     -218664.78      0             -218231.46     -2292.3135    
    174100   298.06202     -218665.41      0             -218228.24     -1740.03      
    174200   302.39419     -218664.23      0             -218220.71     -2233.1651    
    174300   301.23144     -218661.3       0             -218219.48     -2351.4972    
    174400   303.6474      -218666.93      0             -218221.57     -2146.2858    
    174500   299.50904     -218664.93      0             -218225.64     -2181.4234    
    174600   300.97478     -218667.32      0             -218225.87     -1763.0228    
    174700   303.29937     -218668.75      0             -218223.9      -1803.7744    
    174800   305.31433     -218664.41      0             -218216.6      -1578.5276    
    174900   304.03357     -218661.98      0             -218216.05     -1068.6181    
    175000   301.16381     -218664.88      0             -218223.16     -1592.2667    
    175100   299.41461     -218666.19      0             -218227.04     -1618.4282    
    175200   297.77011     -218663.63      0             -218226.89     -1889.7401    
    175300   300.55319     -218663.36      0             -218222.53     -1645.8142    
    175400   300.27456     -218655.08      0             -218214.66     -593.63208    
    175500   303.64474     -218659.63      0             -218214.27     -955.29534    
    175600   300.29379     -218662.98      0             -218222.53     -1547.9666    
    175700   301.59791     -218667.09      0             -218224.73     -1207.7959    
    175800   300.88481     -218666.85      0             -218225.54     -2033.6969    
    175900   299.77385     -218663.89      0             -218224.21     -2120.5721    
    176000   297.80856     -218659.82      0             -218223.02     -2946.4701    
    176100   301.92052     -218661.95      0             -218219.12     -814.98349    
    176200   302.56395     -218659.94      0             -218216.17     -1894.8847    
    176300   302.17611     -218663.2       0             -218219.99     -2106.2828    
    176400   300.84377     -218668.52      0             -218227.27     -2456.228     
    176500   298.9965      -218666.49      0             -218227.95     -1665.4053    
    176600   301.26849     -218665.68      0             -218223.8      -1890.1165    
    176700   301.72804     -218661.06      0             -218218.51     -1463.8137    
    176800   301.97529     -218662.13      0             -218219.22     -1498.3209    
    176900   300.53863     -218662.37      0             -218221.57     -1617.8328    
    177000   299.73427     -218662.54      0             -218222.92     -1874.0853    
    177100   300.89343     -218665.69      0             -218224.36     -1437.3008    
    177200   303.2962      -218669.91      0             -218225.06     -241.28837    
    177300   299.08236     -218664.9       0             -218226.23     -247.30373    
    177400   298.64575     -218664.02      0             -218225.99     -2182.8646    
    177500   299.47345     -218661.34      0             -218222.09     -2001.7424    
    177600   304.75886     -218664.26      0             -218217.27     -1548.8823    
    177700   303.66606     -218663.82      0             -218218.43     -2947.5024    
    177800   301.54851     -218669.89      0             -218227.6      -1474.0716    
    177900   298.175       -218667.36      0             -218230.02     -1334.2335    
    178000   298.59814     -218663.92      0             -218225.96     -1680.4196    
    178100   303.5313      -218666.56      0             -218221.36     -1651.6536    
    178200   300.57526     -218662.35      0             -218221.5      -1656.2423    
    178300   300.28548     -218663.56      0             -218223.13     -1039.2851    
    178400   299.9246      -218664.33      0             -218224.43     -1312.1401    
    178500   302.09955     -218667.89      0             -218224.8      -1745.4707    
    178600   301.52797     -218666.69      0             -218224.44     -928.69839    
    178700   300.67726     -218664.44      0             -218223.43     -1673.2272    
    178800   300.37359     -218663.3       0             -218222.74     -1476.2735    
    178900   298.93094     -218659.27      0             -218220.82     -722.44608    
    179000   300.09856     -218660.99      0             -218220.83     -1805.0718    
    179100   296.9569      -218660.62      0             -218225.07     -2012.3106    
    179200   299.43114     -218668.61      0             -218229.43     -2917.4557    
    179300   296.29342     -218664.91      0             -218230.34     -2143.8503    
    179400   297.9221      -218658.87      0             -218221.91     -1933.1449    
    179500   301.36345     -218659.68      0             -218217.67     -1545.1663    
    179600   301.59026     -218661.85      0             -218219.51     -1322.279     
    179700   296.23343     -218660.66      0             -218226.17     -768.72058    
    179800   297.45067     -218665.33      0             -218229.05     -1695.8131    
    179900   299.83948     -218666.72      0             -218226.95     -1689.2129    
    180000   300.24083     -218664.64      0             -218224.27     -2441.7328    
    180100   302.43505     -218667.58      0             -218224        -1244.8874    
    180200   297.3476      -218659.26      0             -218223.14     -1192.4193    
    180300   302.43545     -218662.15      0             -218218.57     -1692.8648    
    180400   302.80386     -218658.03      0             -218213.9      -1407.237     
    180500   297.04669     -218653.95      0             -218218.27     -2183.0054    
    180600   303.46588     -218669.91      0             -218224.81     -2036.3935    
    180700   297.3173      -218663.61      0             -218227.53     -2145.8081    
    180800   298.22168     -218662.91      0             -218225.5      -737.60867    
    180900   302.78745     -218664.7       0             -218220.6      -1316.4982    
    181000   306.50337     -218661.21      0             -218211.65     -1088.246     
    181100   303.66782     -218656.28      0             -218210.89     -1153.151     
    181200   301.26236     -218659.42      0             -218217.55     -1626.488     
    181300   301.28783     -218663.8       0             -218221.9      -836.70306    
    181400   297.60801     -218662.3       0             -218225.79     -748.62999    
    181500   297.84125     -218664.21      0             -218227.36     -1716.6941    
    181600   296.37066     -218662.52      0             -218227.83     -1663.6942    
    181700   298.52374     -218659.19      0             -218221.34     -2328.193     
    181800   305.16766     -218664.55      0             -218216.96     -1067.9008    
    181900   301.70312     -218661.95      0             -218219.43     -2058.147     
    182000   293.90146     -218660.03      0             -218228.96     -1303.0557    
    182100   299.56185     -218669         0             -218229.63     -1085.8006    
    182200   298.13211     -218662.75      0             -218225.48     -893.18695    
    182300   303.2813      -218665.52      0             -218220.7      -2089.2575    
    182400   302.9246      -218665.24      0             -218220.93     -2256.7701    
    182500   300.05804     -218669.09      0             -218228.99     -2406.6837    
    182600   299.14619     -218672.46      0             -218233.69     -1712.7846    
    182700   300.0118      -218670.44      0             -218230.41     -1883.8049    
    182800   299.32577     -218663.85      0             -218224.82     -1593.7483    
    182900   300.62665     -218662.94      0             -218222.01     -900.47598    
    183000   300.2283      -218662.91      0             -218222.56     -1239.8122    
    183100   298.36069     -218662.64      0             -218225.03     -2208.933     
    183200   298.85564     -218667.23      0             -218228.89     -1020.1234    
    183300   296.72056     -218671.76      0             -218236.56     -2225.1611    
    183400   297.31859     -218669.35      0             -218233.27     -1435.8631    
    183500   300.93122     -218667.3       0             -218225.92     -1550.2679    
    183600   302.10097     -218666.51      0             -218223.41     -1324.2782    
    183700   301.66744     -218664.82      0             -218222.36     -1841.017     
    183800   298.85904     -218661.22      0             -218222.88     -2201.45      
    183900   298.10851     -218664.51      0             -218227.27     -2019.8771    
    184000   297.78357     -218668.76      0             -218232        -1527.8736    
    184100   300.23523     -218668.47      0             -218228.11     -805.71396    
    184200   301.58565     -218662.56      0             -218220.22     -1581.0753    
    184300   299.81527     -218660.26      0             -218220.52     -1364.1911    
    184400   301.62603     -218666.06      0             -218223.67     -2389.503     
    184500   298.71489     -218666.2       0             -218228.07     -2247.5151    
    184600   295.9038      -218666.21      0             -218232.2      -2273.786     
    184700   296.73851     -218667.6       0             -218232.37     -1830.9766    
    184800   303.02169     -218669.08      0             -218224.64     -1905.3622    
    184900   303.15129     -218664.47      0             -218219.83     -2085.9312    
    185000   298.92169     -218658.4       0             -218219.97     -1907.505     
    185100   302.66704     -218669.44      0             -218225.52     -1223.9592    
    185200   298.32798     -218668.71      0             -218231.14     -1290.1292    
    185300   293.49758     -218659.7       0             -218229.22     -1111.4429    
    185400   297.9337      -218662.77      0             -218225.78     -1162.4708    
    185500   300.14699     -218663.49      0             -218223.26     -1443.0999    
    185600   302.36884     -218665.85      0             -218222.36     -1472.6741    
    185700   298.75419     -218661.67      0             -218223.48     -725.1489     
    185800   298.10599     -218669.63      0             -218232.4      -1093.8488    
    185900   298.04571     -218669.8       0             -218232.65     -1378.2474    
    186000   298.52838     -218663.99      0             -218226.13     -1517.0888    
    186100   298.36062     -218660.43      0             -218222.82     -814.42982    
    186200   302.53018     -218665.88      0             -218222.15     -631.04663    
    186300   298.42243     -218661.24      0             -218223.54     -1600.5558    
    186400   299.51332     -218670.02      0             -218230.72     -1789.1326    
    186500   298.39788     -218672.42      0             -218234.76     -1863.1623    
    186600   299.48725     -218668.52      0             -218229.25     -1940.9046    
    186700   299.64239     -218663.72      0             -218224.23     -1693.8295    
    186800   300.63645     -218664         0             -218223.05     -1498.7342    
    186900   301.30077     -218664.55      0             -218222.63     -1570.4871    
    187000   296.24415     -218660.48      0             -218225.98     -1726.3514    
    187100   298.67813     -218670.01      0             -218231.93     -1561.6128    
    187200   297.28886     -218667.68      0             -218231.64     -1750.0382    
    187300   296.15625     -218657.73      0             -218223.36     -3607.2071    
    187400   301.15915     -218661.81      0             -218220.1      -1715.9987    
    187500   301.68904     -218664.04      0             -218221.55     -1555.5659    
    187600   298.76315     -218664.49      0             -218226.29     -1801.0896    
    187700   298.02943     -218668.13      0             -218231        -93.363664    
    187800   299.34852     -218667.92      0             -218228.86     -654.80702    
    187900   300.36757     -218659.48      0             -218218.93      502.17841    
    188000   301.10093     -218660.78      0             -218219.15     -1068.2106    
    188100   297.82622     -218661.64      0             -218224.81     -901.98561    
    188200   297.97895     -218665.55      0             -218228.5      -1424.8099    
    188300   301.95268     -218669.62      0             -218226.75     -1692.4647    
    188400   303.32831     -218663.38      0             -218218.48     -2688.641     
    188500   301.19106     -218655.26      0             -218213.5      -1001.5414    
    188600   301.2896      -218659.98      0             -218218.07     -1650.0631    
    188700   301.56276     -218666.02      0             -218223.71     -1713.5568    
    188800   298.00608     -218663.48      0             -218226.39     -2179.0827    
    188900   298.29511     -218663.87      0             -218226.35     -1637.0779    
    189000   299.24143     -218661.93      0             -218223.03     -1713.4503    
    189100   300.13623     -218655.44      0             -218215.23     -1572.6388    
    189200   299.58552     -218655.46      0             -218216.05     -2155.2342    
    189300   299.97666     -218663.53      0             -218223.55     -1291.3267    
    189400   296.03552     -218660.26      0             -218226.06     -936.54346    
    189500   297.76829     -218662.81      0             -218226.07     -1126.7091    
    189600   299.98532     -218663.69      0             -218223.69     -1388.8932    
    189700   305.26093     -218664.4       0             -218216.67     -2268.1342    
    189800   303.08548     -218659.36      0             -218214.82     -1770.4687    
    189900   300.73859     -218662.59      0             -218221.49     -1989.2679    
    190000   300.85275     -218666.8       0             -218225.53     -1844.8238    
    190100   301.02247     -218667.48      0             -218225.97     -2288.1546    
    190200   297.59524     -218661         0             -218224.51     -2212.2385    
    190300   298.71595     -218658.94      0             -218220.81     -1221.4511    
    190400   299.47466     -218654.61      0             -218215.37     -1014.2859    
    190500   303.72226     -218662.02      0             -218216.55     -1621.1817    
    190600   299.41304     -218665.61      0             -218226.46     -1022.4663    
    190700   299.04071     -218667.47      0             -218228.87     -1686.1706    
    190800   298.54915     -218665.43      0             -218227.55     -1983.7185    
    190900   301.32686     -218662.68      0             -218220.72     -1999.8526    
    191000   304.13568     -218663.87      0             -218217.79     -1102.966     
    191100   303.25734     -218665.76      0             -218220.97     -1093.5866    
    191200   302.70261     -218667.04      0             -218223.06     -1696.0515    
    191300   297.78945     -218661.41      0             -218224.64     -1152.9668    
    191400   297.96537     -218661.48      0             -218224.45     -1015.8771    
    191500   299.57063     -218664.02      0             -218224.64     -2079.9766    
    191600   301.33174     -218665.64      0             -218223.67     -2543.5229    
    191700   303.13404     -218666.25      0             -218221.63     -2729.2625    
    191800   301.42688     -218663.67      0             -218221.56     -31.580508    
    191900   296.74027     -218659.65      0             -218224.42     -1139.8391    
    192000   297.27043     -218665.76      0             -218229.75     -1169.3045    
    192100   298.95537     -218669.79      0             -218231.31     -1097.2541    
    192200   302.43395     -218667.06      0             -218223.47     -2149.3122    
    192300   303.51246     -218663.86      0             -218218.7      -305.246      
    192400   301.49168     -218663.16      0             -218220.96     -1541.0417    
    192500   297.06692     -218661.88      0             -218226.17     -1484.689     
    192600   302.38783     -218672.57      0             -218229.05     -1472.2922    
    192700   301.66761     -218670.55      0             -218228.09     -2502.081     
    192800   303.55904     -218661.43      0             -218216.2      -2088.6349    
    192900   304.63395     -218662.8       0             -218215.99     -2200.4593    
    193000   301.92899     -218665.67      0             -218222.83     -539.61305    
    193100   298.80204     -218665.94      0             -218227.68     -468.10929    
    193200   300.20322     -218668.67      0             -218228.36     -561.79912    
    193300   299.93769     -218664.05      0             -218224.12     -1168.3763    
    193400   299.23206     -218655.53      0             -218216.64     -1199.5725    
    193500   303.21217     -218659.99      0             -218215.26     -2363.7025    
    193600   300.06998     -218662.65      0             -218222.53     -1046.0978    
    193700   300.46326     -218665.55      0             -218224.86     -1468.7658    
    193800   298.67042     -218663.82      0             -218225.76     -610.81429    
    193900   300.20498     -218664.47      0             -218224.15     -617.98143    
    194000   300.85416     -218661.38      0             -218220.11     -1754.0192    
    194100   304.08298     -218664.52      0             -218218.51     -1656.476     
    194200   298.75923     -218662.43      0             -218224.24     -1778.4156    
    194300   296.97591     -218666.14      0             -218230.56     -2662.0802    
    194400   297.27306     -218664.94      0             -218228.92     -1873.4226    
    194500   301.21573     -218665.06      0             -218223.26     -1300.3335    
    194600   301.08304     -218662.3       0             -218220.69     -1458.2029    
    194700   299.05696     -218661.43      0             -218222.8      -974.75939    
    194800   301.99669     -218666.77      0             -218223.83     -1183.7035    
    194900   297.95617     -218662.27      0             -218225.26     -2142.1819    
    195000   299.0292      -218666.17      0             -218227.58     -918.64737    
    195100   301.20066     -218671.68      0             -218229.91     -1160.5703    
    195200   295.31702     -218662.53      0             -218229.38     -1809.8775    
    195300   302.07493     -218665.82      0             -218222.76     -1234.388     
    195400   301.7754      -218661.02      0             -218218.4      -1532.0031    
    195500   299.96996     -218660.43      0             -218220.46     -1682.2232    
    195600   296.4761      -218661.14      0             -218226.29     -1683.9315    
    195700   300.6298      -218671.33      0             -218230.4      -2212.1293    
    195800   294.71903     -218668.92      0             -218236.65     -1479.6235    
    195900   295.2151      -218672.41      0             -218239.42     -1896.7769    
    196000   298.04279     -218667.97      0             -218230.82     -1172.6292    
    196100   299.7866      -218664.03      0             -218224.33     -1091.2486    
    196200   303.47033     -218667.02      0             -218221.91     -1672.6002    
    196300   303.15582     -218666.88      0             -218222.24     -1245.8572    
    196400   297.38555     -218661.17      0             -218224.99     -1928.7496    
    196500   301.13324     -218672.65      0             -218230.97     -1644.3423    
    196600   294.71916     -218665.33      0             -218233.06     -1385.1076    
    196700   299.84402     -218665.41      0             -218225.63     -1942.2563    
    196800   300.19969     -218660.45      0             -218220.15     -1993.6523    
    196900   302.52905     -218664.15      0             -218220.42     -1458.6245    
    197000   298.36291     -218664.26      0             -218226.65     -1927.0555    
    197100   298.57549     -218667.18      0             -218229.25     -2517.6887    
    197200   296.75019     -218661.96      0             -218226.71     -1987.7873    
    197300   301.6687      -218666.34      0             -218223.88     -889.35327    
    197400   302.15117     -218666.35      0             -218223.18     -2061.9286    
    197500   298.72298     -218661.82      0             -218223.68     -2104.3685    
    197600   301.7356      -218666.5       0             -218223.94     -2122.1626    
    197700   299.00693     -218663.97      0             -218225.41     -739.95099    
    197800   298.24627     -218669.33      0             -218231.89     -642.74496    
    197900   298.85428     -218671.26      0             -218232.92     -557.11902    
    198000   298.99943     -218665.91      0             -218227.36     -1426.3799    
    198100   303.06138     -218665.77      0             -218221.27     -2095.697     
    198200   302.87779     -218664.67      0             -218220.44     -936.97692    
    198300   298.55891     -218661.67      0             -218223.77     -1485.3114    
    198400   299.09965     -218670.94      0             -218232.24     -1908.749     
    198500   299.59819     -218671.28      0             -218231.86     -474.7737     
    198600   298.58161     -218665.66      0             -218227.73     -407.33564    
    198700   300.2626      -218665.03      0             -218224.63     -781.55518    
    198800   301.42265     -218665.29      0             -218223.19     -1424.0656    
    198900   298.54829     -218662.45      0             -218224.56     -625.23969    
    199000   300.50889     -218667.16      0             -218226.4      -780.50578    
    199100   297.61068     -218670.39      0             -218233.88     -1002.3185    
    199200   295.62173     -218669.19      0             -218235.6      -1538.6899    
    199300   296.69255     -218662.97      0             -218227.81     -1468.9497    
    199400   299.8039      -218663.54      0             -218223.81     -1214.0089    
    199500   299.65897     -218662.86      0             -218223.35     -1465.9799    
    199600   298.82803     -218662.78      0             -218224.48     -1074.8845    
    199700   300.67137     -218666.99      0             -218225.99     -2260.098     
    199800   296.84811     -218664.03      0             -218228.63     -1751.5167    
    199900   298.06959     -218666.1       0             -218228.91     -1371.525     
    200000   301.56722     -218665.21      0             -218222.9      -1207.2459    
    200100   303.60401     -218663.94      0             -218218.63     -1185.0458    
    200200   301.22475     -218662.41      0             -218220.59     -1577.0626    
    200300   294.56602     -218663.05      0             -218231        -1910.1215    
    200400   296.90635     -218666.81      0             -218231.33     -1695.4216    
    200500   299.78303     -218665.32      0             -218225.62     -1602.0031    
    200600   300.36393     -218662.15      0             -218221.6      -1406.3718    
    200700   298.81369     -218659.84      0             -218221.57     -1418.6245    
    200800   295.41781     -218661.16      0             -218227.87     -767.93282    
    200900   293.40773     -218665.85      0             -218235.5      -2232.5739    
    201000   298.21837     -218669.67      0             -218232.27     -434.02954    
    201100   299.9595      -218666.24      0             -218226.29     -2102.9311    
    201200   299.69415     -218662.88      0             -218223.32     -1116.7184    
    201300   303.49642     -218667.39      0             -218222.25     -1313.2177    
    201400   300.37093     -218665.16      0             -218224.61     -2143.0843    
    201500   299.9252      -218672.38      0             -218232.48     -1781.6501    
    201600   298.87034     -218671.47      0             -218233.11     -758.35237    
    201700   299.61063     -218666.15      0             -218226.7      -625.95833    
    201800   300.88934     -218664.24      0             -218222.92     -593.56721    
    201900   298.23957     -218660.33      0             -218222.9      -1705.3702    
    202000   299.05402     -218664.29      0             -218225.66     -1136.3923    
    202100   300.11692     -218668.78      0             -218228.6      -2601.0749    
    202200   300.79099     -218672.03      0             -218230.86     -1217.6134    
    202300   300.12721     -218670.64      0             -218230.44     -2263.2802    
    202400   296.63473     -218659.84      0             -218224.76     -1441.0213    
    202500   301.31105     -218661.19      0             -218219.25     -1377.2179    
    202600   306.14687     -218668.72      0             -218219.69     -212.63146    
    202700   299.6255      -218665.93      0             -218226.46     -1473.0596    
    202800   299.85479     -218669.9       0             -218230.1      -1614.8161    
    202900   295.17733     -218660.59      0             -218227.65     -2147.408     
    203000   298.50755     -218661.03      0             -218223.21     -1866.4373    
    203100   300.43269     -218662.72      0             -218222.07     -2388.5259    
    203200   300.1006      -218664.29      0             -218224.13     -1599.6053    
    203300   296.8507      -218666.2       0             -218230.8      -1999.8284    
    203400   299.17542     -218671.56      0             -218232.76     -892.52608    
    203500   298.18972     -218664.87      0             -218227.51     -1093.5909    
    203600   299.39661     -218660.02      0             -218220.89     -1584.7447    
    203700   303.66867     -218666.58      0             -218221.19     -1406.597     
    203800   298.82006     -218663.79      0             -218225.51     -2836.5133    
    203900   296.83579     -218666.59      0             -218231.22     -1564.8059    
    204000   293.22111     -218661.58      0             -218231.51     -956.22283    
    204100   299.72315     -218659.2       0             -218219.59     -1332.542     
    204200   301.69242     -218661.49      0             -218219        -1259.2545    
    204300   299.95806     -218663.36      0             -218223.4      -1378.8931    
    204400   301.25484     -218670.11      0             -218228.25     -2682.6928    
    204500   296.57808     -218665.05      0             -218230.06     -1687.3327    
    204600   301.09844     -218667.11      0             -218225.49     -925.73291    
    204700   305.11716     -218664.81      0             -218217.29     -866.4321     
    204800   300.3918      -218660.42      0             -218219.83     -1044.6352    
    204900   300.16266     -218665.58      0             -218225.32     -585.77948    
    205000   297.92943     -218665.32      0             -218228.35     -781.78548    
    205100   301.93367     -218670.67      0             -218227.82     -1576.0876    
    205200   301.21717     -218666.43      0             -218224.63     -2183.83      
    205300   298.21927     -218660.84      0             -218223.44     -1602.0502    
    205400   302.08863     -218665.98      0             -218222.9      -1794.0292    
    205500   301.61872     -218666.28      0             -218223.9      -1981.2649    
    205600   298.55433     -218665.22      0             -218227.33     -1110.1358    
    205700   295.08364     -218667.02      0             -218234.22     -1140.2433    
    205800   295.13624     -218665.54      0             -218232.66     -1294.0378    
    205900   300.04929     -218663.3       0             -218223.22     -1509.0584    
    206000   298.25643     -218659.76      0             -218222.3      -1582.7842    
    206100   301.17578     -218665.18      0             -218223.44     -318.21235    
    206200   298.83812     -218666.68      0             -218228.37     -596.13966    
    206300   299.05318     -218671.59      0             -218232.96     -1642.6878    
    206400   296.52553     -218668.59      0             -218233.67     -1952.4638    
    206500   299.69942     -218663.1       0             -218223.53     -2153.155     
    206600   302.97691     -218665.07      0             -218220.69     -1819.0182    
    206700   300.96362     -218663.1       0             -218221.67     -1541.228     
    206800   297.60621     -218663.9       0             -218227.39     -741.88815    
    206900   297.25716     -218668.12      0             -218232.13     -1845.3872    
    207000   298.6054      -218667.47      0             -218229.5      -1915.8575    
    207100   300.47568     -218664.69      0             -218223.97     -1281.9233    
    207200   298.1259      -218661.55      0             -218224.29     -1222.4488    
    207300   298.58194     -218663.24      0             -218225.31     -1512.862     
    207400   301.05559     -218667.36      0             -218225.79     -370.4104     
    207500   300.22023     -218666.35      0             -218226.01     -1805.6881    
    207600   298.88264     -218662.94      0             -218224.56     -2212.2516    
    207700   299.99933     -218662.55      0             -218222.53     -2140.9766    
    207800   300.82191     -218662.94      0             -218221.72     -1141.448     
    207900   298.44566     -218660.05      0             -218222.31     -1268.3755    
    208000   299.63064     -218665.73      0             -218226.26     -1017.2468    
    208100   295.01309     -218663.84      0             -218231.14     -2627.1369    
    208200   297.29633     -218664.58      0             -218228.53     -1963.262     
    208300   301.86273     -218662.7       0             -218219.96     -1695.2729    
    208400   301.3835      -218661.7       0             -218219.66     -1693.8236    
    208500   299.13557     -218661.95      0             -218223.21     -626.01686    
    208600   300.63151     -218667.48      0             -218226.54     -2271.507     
    208700   296.94131     -218667.37      0             -218231.84     -1189.0241    
    208800   294.18636     -218670.58      0             -218239.1      -392.0968     
    208900   296.14368     -218669.82      0             -218235.46     -104.41225    
    209000   298.97178     -218664.75      0             -218226.25     -53.155481    
    209100   300.0704      -218664.26      0             -218224.14     -1286.4413    
    209200   301.08774     -218664.13      0             -218222.52     -1541.6881    
    209300   298.94219     -218660.52      0             -218222.05     -1692.3591    
    209400   302.95397     -218668.35      0             -218224        -2185.3821    
    209500   300.05813     -218669.67      0             -218229.57     -2772.1469    
    209600   296.55291     -218665.74      0             -218230.78     -2140.8687    
    209700   300.38068     -218663.04      0             -218222.47     -2191.7263    
    209800   304.6274      -218665.4       0             -218218.59     -1515.0602    
    209900   304.56323     -218667.49      0             -218220.78     -2489.9998    
    210000   297.55705     -218663.17      0             -218226.74     -1743.4978    
    210100   297.51136     -218665.6       0             -218229.23     -698.33398    
    210200   297.05236     -218663.43      0             -218227.74     -691.31002    
    210300   298.55811     -218663.58      0             -218225.68     -1584.2359    
    210400   299.9746      -218665.2       0             -218225.22     -710.89696    
    210500   298.56442     -218662.6       0             -218224.69     -1743.7196    
    210600   302.31867     -218665.92      0             -218222.5      -1292.1426    
    210700   300.5029      -218659.53      0             -218218.78     -2092.6696    
    210800   302.8205      -218661.45      0             -218217.3      -1983.5602    
    210900   302.32174     -218667.49      0             -218224.07     -1960.4053    
    211000   297.44182     -218664.65      0             -218228.38     -1283.4798    
    211100   300.24982     -218667.23      0             -218226.85     -938.91996    
    211200   301.37408     -218664.07      0             -218222.04     -1552.9968    
    211300   303.00584     -218658.05      0             -218213.63     -1905.0715    
    211400   303.81279     -218659.94      0             -218214.34     -1230.2222    
    211500   303.24252     -218662.8       0             -218218.03     -1699.0695    
    211600   302.14895     -218666.45      0             -218223.28     -366.49877    
    211700   298.58016     -218665.78      0             -218227.84     -986.68395    
    211800   296.91942     -218663.66      0             -218228.16     -983.97097    
    211900   298.08007     -218662.13      0             -218224.93     -1780.1722    
    212000   302.03559     -218660.83      0             -218217.83     -1295.4189    
    212100   300.65524     -218657.73      0             -218216.75     -1274.5025    
    212200   300.60175     -218665.78      0             -218224.88     -2017.1318    
    212300   300.63194     -218668.94      0             -218228        -1895.582     
    212400   300.48795     -218667.66      0             -218226.93     -1782.8134    
    212500   299.77075     -218663.77      0             -218224.09     -1420.877     
    212600   299.26658     -218658.24      0             -218219.31     -1963.0182    
    212700   303.86983     -218661.5       0             -218215.81     -1611.3489    
    212800   301.04671     -218664.54      0             -218222.99     -1845.1882    
    212900   297.88657     -218666.6       0             -218229.68     -744.12913    
    213000   295.48312     -218663.23      0             -218229.84     -1518.5588    
    213100   300.81531     -218665.46      0             -218224.25     -1017.4995    
    213200   302.44428     -218663.67      0             -218220.07     -649.94687    
    213300   301.54121     -218664.13      0             -218221.86     -2153.3167    
    213400   298.06326     -218667.04      0             -218229.86     -2137.9154    
    213500   299.00893     -218675.18      0             -218236.62     -1331.1469    
    213600   299.04015     -218670.69      0             -218232.08     -321.95269    
    213700   300.90559     -218666.6       0             -218225.25     -2391.8587    
    213800   299.37115     -218661.2       0             -218222.11     -1911.3498    
    213900   297.75278     -218659.2       0             -218222.48     -795.12625    
    214000   301.8777      -218667.98      0             -218225.22     -2076.5851    
    214100   296.98305     -218668.18      0             -218232.59     -1083.9989    
    214200   295.05911     -218665.86      0             -218233.09     -1132.5264    
    214300   299.36966     -218664.89      0             -218225.8      -1292.589     
    214400   295.95052     -218657.29      0             -218223.21     -1408.0475    
    214500   300.86841     -218664.8       0             -218223.52     -912.97441    
    214600   301.26329     -218667.31      0             -218225.44     -963.86045    
    214700   299.42333     -218670.79      0             -218231.62     -1835.4252    
    214800   295.35887     -218670.38      0             -218237.17     -1836.2055    
    214900   298.90575     -218669.91      0             -218231.51     -802.72876    
    215000   301.43733     -218665.41      0             -218223.29     -2520.6069    
    215100   301.34659     -218663.76      0             -218221.77     -1689.9968    
    215200   299.65526     -218663.64      0             -218224.13     -1792.756     
    215300   298.30894     -218666.37      0             -218228.84     -1783.6378    
    215400   296.30862     -218668.09      0             -218233.49     -299.73183    
    215500   297.39893     -218667.12      0             -218230.92     -995.78199    
    215600   301.24182     -218663.38      0             -218221.54      7.9490165    
    215700   300.97119     -218662.2       0             -218220.76     -16.022744    
    215800   299.48742     -218663.4       0             -218224.14     -833.47485    
    215900   297.36451     -218666.8       0             -218230.66     -2554.457     
    216000   297.79405     -218670.17      0             -218233.39     -1534.6035    
    216100   296.20825     -218665.05      0             -218230.59     -2315.5976    
    216200   299.51599     -218666.35      0             -218227.04     -2451.2596    
    216300   299.67715     -218664.31      0             -218224.77     -1614.1282    
    216400   303.12669     -218666.02      0             -218221.42     -1132.272     
    216500   301.55366     -218659.26      0             -218216.96     -2160.5539    
    216600   299.03851     -218653.56      0             -218214.96     -2438.8919    
    216700   300.41461     -218663.68      0             -218223.05     -595.87913    
    216800   302.24741     -218672.01      0             -218228.7      -1305.3949    
    216900   299.54485     -218669         0             -218229.65     -636.07411    
    217000   301.66912     -218667.18      0             -218224.72     -556.71098    
    217100   300.08309     -218659.54      0             -218219.41     -2083.0241    
    217200   301.55518     -218663.49      0             -218221.2      -813.95627    
    217300   299.56139     -218671.78      0             -218232.41     -1998.4489    
    217400   297.3266      -218668.19      0             -218232.1      -1218.3212    
    217500   301.15913     -218667.57      0             -218225.85     -950.24567    
    217600   299.66743     -218661.09      0             -218221.57     -1989.1843    
    217700   302.10917     -218663.8       0             -218220.69     -2855.5674    
    217800   299.52881     -218666.2       0             -218226.87     -2086.7648    
    217900   296.82236     -218669.41      0             -218234.06     -2120.0114    
    218000   296.26705     -218666.46      0             -218231.92     -2078.9728    
    218100   298.50536     -218664.85      0             -218227.02     -1275.2417    
    218200   298.81255     -218662.4       0             -218224.12     -2043.8818    
    218300   298.7126      -218661.64      0             -218223.52     -678.15006    
    218400   300.42179     -218665.57      0             -218224.93     -681.19155    
    218500   296.82349     -218668.83      0             -218233.47     -664.62186    
    218600   296.46298     -218669.42      0             -218234.59     -758.49154    
    218700   299.2366      -218666.31      0             -218227.42     -1471.8254    
    218800   299.43004     -218663.14      0             -218223.96     -1026.9931    
    218900   300.11924     -218662.45      0             -218222.26     -629.9389     
    219000   301.46746     -218665.32      0             -218223.16     -2142.8289    
    219100   298.10622     -218668.58      0             -218231.35     -1850.6052    
    219200   297.53701     -218671.7       0             -218235.3      -1924.376     
    219300   299.80423     -218670.01      0             -218230.28     -2407.8494    
    219400   301.07245     -218667.28      0             -218225.69     -1683.0396    
    219500   299.00594     -218662.34      0             -218223.79     -266.95577    
    219600   299.20636     -218662.11      0             -218223.26      67.205015    
    219700   297.36503     -218662.89      0             -218226.74     -1248.1409    
    219800   297.49882     -218670.88      0             -218234.53     -1717.841     
    219900   294.68111     -218665.53      0             -218233.32     -2442.4735    
    220000   301.09528     -218667.91      0             -218226.29     -2870.8662    
    220100   298.05344     -218661.92      0             -218224.76     -1519.97      
    220200   298.02291     -218661.78      0             -218224.67     -1900.5694    
    220300   300.92394     -218666.65      0             -218225.28     -1378.2185    
    220400   298.9266      -218666.73      0             -218228.29     -2109.4503    
    220500   296.49134     -218666.39      0             -218231.53     -1389.3977    
    220600   298.78204     -218666.73      0             -218228.5      -1109.2833    
    220700   301.2968      -218663.65      0             -218221.73     -2424.5885    
    220800   301.04981     -218661.43      0             -218219.88     -1331.51      
    220900   300.59723     -218664.58      0             -218223.69     -928.86013    
    221000   298.5632      -218669.37      0             -218231.46     -1376.3153    
    221100   297.73905     -218668.83      0             -218232.13     -1319.2451    
    221200   298.76456     -218666.26      0             -218228.06     -1059.3026    
    221300   300.65562     -218663.79      0             -218222.81     -607.2648     
    221400   301.33186     -218663.5       0             -218221.53     -1267.4078    
    221500   298.74914     -218663.77      0             -218225.59     -1289.4521    
    221600   297.00592     -218669.13      0             -218233.5      -1939.3069    
    221700   299.6556      -218672.09      0             -218232.58     -1915.635     
    221800   297.06694     -218664.65      0             -218228.93     -2569.3777    
    221900   296.6254      -218661.3       0             -218226.23     -2286.4129    
    222000   297.21234     -218660.46      0             -218224.53     -2701.8187    
    222100   301.19695     -218665.11      0             -218223.34     -1762.4087    
    222200   296.59188     -218661.38      0             -218226.37     -1131.8509    
    222300   298.70324     -218671.44      0             -218233.33     -1919.045     
    222400   296.98084     -218669.09      0             -218233.5      -1036.1944    
    222500   300.28159     -218666.75      0             -218226.33     -2290.4468    
    222600   301.13396     -218664.19      0             -218222.51     -2226.9843    
    222700   302.13045     -218666.62      0             -218223.48     -2694.633     
    222800   297.06274     -218662.61      0             -218226.9      -1508.0737    
    222900   299.35979     -218670.78      0             -218231.71     -1331.8752    
    223000   297.1502      -218674.04      0             -218238.21     -2661.3901    
    223100   293.45208     -218671.51      0             -218241.09     -1188.3064    
    223200   295.52681     -218664.81      0             -218231.36     -1421.6546    
    223300   300.1084      -218666.01      0             -218225.83     -1252.9961    
    223400   298.83167     -218661.85      0             -218223.55     -886.84504    
    223500   303.45984     -218670.27      0             -218225.18     -1324.6836    
    223600   298.34762     -218669.18      0             -218231.58     -1122.1807    
    223700   298.87362     -218672.57      0             -218234.2      -1377.6111    
    223800   297.63106     -218665.26      0             -218228.72     -992.37807    
    223900   300.19937     -218661.22      0             -218220.92     -2412.1293    
    224000   302.37156     -218666.17      0             -218222.68     -1036.3784    
    224100   299.18369     -218667.03      0             -218228.21     -1890.0351    
    224200   300.09243     -218670.67      0             -218230.52     -1276.6171    
    224300   298.77601     -218668.2       0             -218229.99     -2169.4477    
    224400   299.45066     -218660.07      0             -218220.86     -1115.853     
    224500   302.85489     -218662.97      0             -218218.77     -1395.5936    
    224600   301.41525     -218665.9       0             -218223.81     -1580.9028    
    224700   301.5739      -218670.06      0             -218227.74     -926.40728    
    224800   300.97134     -218670.7       0             -218229.26     -1807.2003    
    224900   299.65576     -218668.09      0             -218228.58     -1397.7354    
    225000   301.69653     -218665.94      0             -218223.43     -1612.4385    
    225100   305.61501     -218661.02      0             -218212.77     -2330.7874    
    225200   306.18981     -218662.48      0             -218213.38     -720.89326    
    225300   298.57574     -218658.29      0             -218220.36     -1201.8741    
    225400   297.59009     -218662.14      0             -218225.66     -1825.0875    
    225500   296.40676     -218664.92      0             -218230.18     -2322.4102    
    225600   300.06753     -218670.57      0             -218230.46     -1262.2675    
    225700   301.09073     -218665.65      0             -218224.04     -1205.8256    
    225800   301.91178     -218660.17      0             -218217.35     -2155.2191    
    225900   303.48684     -218665.76      0             -218220.63     -1735.0198    
    226000   300.863       -218666.24      0             -218224.96     -1330.9959    
    226100   298.64033     -218666.4       0             -218228.38     -2079.1847    
    226200   298.95415     -218668.46      0             -218229.98     -1599.2917    
    226300   299.51361     -218668.56      0             -218229.26     -831.14798    
    226400   299.28759     -218659.52      0             -218220.55     -559.4664     
    226500   304.49781     -218664.5       0             -218217.89     -1419.5572    
    226600   301.92415     -218666.95      0             -218224.11     -1736.9515    
    226700   298.20065     -218666.54      0             -218229.16     -1338.4853    
    226800   300.24941     -218669.84      0             -218229.46     -1930.1095    
    226900   301.48048     -218670.77      0             -218228.58     -1299.3172    
    227000   302.30583     -218668.24      0             -218224.84     -1297.7989    
    227100   303.78195     -218663.5       0             -218217.94     -638.54867    
    227200   299.18491     -218657.54      0             -218218.72     -1438.3972    
    227300   298.85106     -218665.5       0             -218227.17     -1128.4296    
    227400   299.03088     -218667.65      0             -218229.06     -1686.625     
    227500   296.88964     -218664.84      0             -218229.38     -1547.8909    
    227600   300.60926     -218668.03      0             -218227.12     -1575.9836    
    227700   301.15731     -218662.24      0             -218220.53     -1349.6645    
    227800   300.32201     -218659.52      0             -218219.04     -2129.5422    
    227900   299.30887     -218666.57      0             -218227.57     -788.82424    
    228000   295.44825     -218663.81      0             -218230.48     -2340.2173    
    228100   298.93849     -218667.65      0             -218229.19     -2234.5805    
    228200   298.93716     -218664.11      0             -218225.65     -1609.2107    
    228300   302.5702      -218664.59      0             -218220.81     -1874.5649    
    228400   305.3764      -218666.22      0             -218218.32     -1797.6321    
    228500   300.56091     -218667.56      0             -218226.72     -1899.3399    
    228600   298.82028     -218669.66      0             -218231.37     -1416.8285    
    228700   299.20671     -218669.35      0             -218230.5      -1448.8042    
    228800   301.39173     -218668.26      0             -218226.2      -1674.086     
    228900   303.98368     -218666.78      0             -218220.92     -1442.4866    
    229000   301.77333     -218666.38      0             -218223.76     -1063.5869    
    229100   296.37428     -218667.44      0             -218232.74     -798.22384    
    229200   298.00548     -218670.1       0             -218233.01     -2170.6662    
    229300   298.89583     -218666.08      0             -218227.68     -784.66833    
    229400   297.0557      -218659.54      0             -218223.84     -2536.5217    
    229500   300.54556     -218664.47      0             -218223.66     -1447.6957    
    229600   298.93854     -218665.62      0             -218227.17     -2084.6213    
    229700   297.62826     -218675.45      0             -218238.91     -2283.3781    
    229800   294.77619     -218670.1       0             -218237.74     -1262.8001    
    229900   296.39955     -218664.92      0             -218230.19     -696.7463     
    230000   301.11436     -218666.76      0             -218225.11     -645.86838    
    230100   302.90738     -218668.04      0             -218223.76     -1765.8747    
    230200   297.92019     -218664.88      0             -218227.91     -1467.6862    
    230300   296.37076     -218669.81      0             -218235.12     -1146.0562    
    230400   296.44268     -218669.54      0             -218234.75     -1864.4541    
    230500   299.15366     -218669.59      0             -218230.82     -787.25084    
    230600   296.22803     -218663.24      0             -218228.75     -1763.0035    
    230700   300.08646     -218667         0             -218226.86     -1414.3166    
    230800   300.79458     -218666.65      0             -218225.47     -951.74009    
    230900   304.79948     -218668.7       0             -218221.65     -1364.8399    
    231000   303.60956     -218666.51      0             -218221.2      -2081.2362    
    231100   300.91086     -218669.76      0             -218228.41     -889.63107    
    231200   299.43239     -218671.31      0             -218232.12     -1625.9698    
    231300   302.70329     -218674.72      0             -218230.74     -1547.9174    
    231400   301.91334     -218667.13      0             -218224.31     -1777.8996    
    231500   300.81426     -218659.67      0             -218218.46     -2111.7051    
    231600   304.10809     -218666.95      0             -218220.91     -2080.571     
    231700   302.22852     -218668.99      0             -218225.71     -2012.2616    
    231800   300.87422     -218670.81      0             -218229.52     -895.73075    
    231900   296.32176     -218666.99      0             -218232.37     -416.03073    
    232000   296.89655     -218665.76      0             -218230.3      -1495.1631    
    232100   301.29491     -218663.28      0             -218221.37     -2154.2475    
    232200   300.99082     -218662.04      0             -218220.58     -1937.8459    
    232300   302.02663     -218669.29      0             -218226.3      -1664.7115    
    232400   299.20982     -218668.91      0             -218230.06     -1142.9384    
    232500   301.17011     -218671.15      0             -218229.42     -2363.4848    
    232600   300.76342     -218668.76      0             -218227.62     -1886.1632    
    232700   299.6067      -218667         0             -218227.56     -1928.5879    
    232800   298.58176     -218663.79      0             -218225.85     -1649.055     
    232900   300.31889     -218664.64      0             -218224.16     -618.41954    
    233000   301.8674      -218668.63      0             -218225.87     -390.32676    
    233100   297.23526     -218667.16      0             -218231.2      -1398.1021    
    233200   299.83822     -218673.81      0             -218234.03     -1021.5157    
    233300   297.75909     -218669.79      0             -218233.06     -1356.8267    
    233400   299.15423     -218663.13      0             -218224.36     -1762.6194    
    233500   305.28404     -218668.94      0             -218221.17     -732.72576    
    233600   299.77933     -218664.31      0             -218224.62     -1381.0663    
    233700   300.76013     -218671.94      0             -218230.81     -1408.061     
    233800   299.74387     -218672.66      0             -218233.02     -932.17785    
    233900   296.7619      -218666.81      0             -218231.55     -1838.5702    
    234000   299.98606     -218668.8       0             -218228.81     -1253.4074    
    234100   301.91413     -218669.09      0             -218226.27     -1156.1001    
    234200   303.04296     -218666.82      0             -218222.34     -1470.7769    
    234300   304.84093     -218662.09      0             -218214.97     -1031.7665    
    234400   300.19664     -218657.43      0             -218217.13     -769.94122    
    234500   299.8994      -218665.25      0             -218225.39     -1341.6251    
    234600   297.41991     -218664.54      0             -218228.31     -1936.9634    
    234700   301.81694     -218673.3       0             -218230.62     -1440.3067    
    234800   298.75556     -218669.45      0             -218231.26     -1662.4662    
    234900   301.17723     -218669.77      0             -218228.03     -1094.9099    
    235000   299.47942     -218660.97      0             -218221.72     -2192.9641    
    235100   305.90516     -218668.78      0             -218220.11     -2054.345     
    235200   302.28994     -218672.06      0             -218228.68     -2057.0874    
    235300   299.99709     -218672.69      0             -218232.68     -1053.1987    
    235400   299.52192     -218670.78      0             -218231.47     -819.9461     
    235500   297.15305     -218664.12      0             -218228.28     -1169.7473    
    235600   303.09962     -218666.43      0             -218221.87     -986.31076    
    235700   302.36793     -218664.46      0             -218220.97     -710.23385    
    235800   299.89124     -218670.56      0             -218230.7      -288.64251    
    235900   300.19547     -218674.1       0             -218233.8       66.047833    
    236000   300.76749     -218671.88      0             -218230.74     -2407.7194    
    236100   301.12503     -218666.33      0             -218224.66     -3497.3944    
    236200   304.73082     -218668.65      0             -218221.7      -1054.3702    
    236300   299.50359     -218665.05      0             -218225.76     -949.18935    
    236400   298.61543     -218672.66      0             -218234.67     -1116.8022    
    236500   295.81864     -218667.58      0             -218233.7      -1265.946     
    236600   300.1322      -218669.24      0             -218229.03     -1354.7967    
    236700   301.89455     -218668.26      0             -218225.47     -1339.6279    
    236800   299.8328      -218665.51      0             -218225.74     -976.79445    
    236900   302.02406     -218674.2       0             -218231.22     -1199.1761    
    237000   295.62052     -218671.8       0             -218238.21     -1319.8208    
    237100   298.64611     -218672.16      0             -218234.13     -1858.1495    
    237200   298.40419     -218666.07      0             -218228.4      -2224.8517    
    237300   301.52266     -218668.37      0             -218226.12     -1126.0736    
    237400   297.69126     -218664.57      0             -218227.94     -2289.5124    
    237500   299.04249     -218668.9       0             -218230.29     -1166.74      
    237600   296.62708     -218673.49      0             -218238.42     -3830.9705    
    237700   297.16446     -218675.08      0             -218239.23     -1676.3609    
    237800   296.87013     -218666.99      0             -218231.57     -2319.259     
    237900   300.19108     -218667.82      0             -218227.53     -1401.3223    
    238000   299.96851     -218667.29      0             -218227.32     -987.30745    
    238100   299.79602     -218666.3       0             -218226.59     -791.10769    
    238200   303.43586     -218672.61      0             -218227.56     -1793.433     
    238300   295.61331     -218666.99      0             -218233.41     -2487.7346    
    238400   296.90711     -218671.73      0             -218236.26     -2003.627     
    238500   300.97686     -218673.22      0             -218231.78     -2239.8357    
    238600   301.47853     -218666.89      0             -218224.71     -2433.0234    
    238700   300.86571     -218664.85      0             -218223.57     -1075.7542    
    238800   297.52925     -218663.55      0             -218227.16     -1568.7098    
    238900   296.21294     -218666.94      0             -218232.48     -3311.0666    
    239000   298.88386     -218672.24      0             -218233.86     -1576.4432    
    239100   302.18704     -218666.51      0             -218223.28     -2131.078     
    239200   302.12854     -218663.41      0             -218220.27     -2585.8818    
    239300   296.05283     -218660.13      0             -218225.9      -592.39756    
    239400   298.1906      -218669.1       0             -218231.74     -1005.685     
    239500   299.09017     -218671.97      0             -218233.29     -1913.2492    
    239600   301.04629     -218670.3       0             -218228.75     -1685.1778    
    239700   301.55515     -218663.01      0             -218220.72     -1657.6461    
    239800   302.75294     -218666.18      0             -218222.13     -1369.6639    
    239900   299.73048     -218665.64      0             -218226.02     -1949.925     
    240000   299.87369     -218669.53      0             -218229.7      -1665.9164    
    240100   299.27831     -218670.72      0             -218231.76     -1374.4995    
    240200   301.39022     -218669.29      0             -218227.23     -1046.7022    
    240300   304.51142     -218665.01      0             -218218.38     -2078.5635    
    240400   303.99127     -218667.18      0             -218221.31     -1317.8838    
    240500   302.09182     -218670.59      0             -218227.51     -1639.1895    
    240600   298.68673     -218668.24      0             -218230.15     -705.3324     
    240700   301.58659     -218672.75      0             -218230.41     -1579.1424    
    240800   298.72127     -218665.67      0             -218227.53     -1700.1111    
    240900   303.59217     -218664.12      0             -218218.84     -993.07637    
    241000   303.87694     -218665.58      0             -218219.88     -1614.5906    
    241100   300.48888     -218667.54      0             -218226.81     -1487.1735    
    241200   301.93055     -218672.24      0             -218229.39     -1448.7663    
    241300   298.89228     -218668.6       0             -218230.21     -1310.9082    
    241400   302.28046     -218671.54      0             -218228.18     -765.91664    
    241500   299.21304     -218664.65      0             -218225.79     -1694.9521    
    241600   301.92628     -218664.2       0             -218221.36     -2441.1879    
    241700   302.68629     -218667.55      0             -218223.59     -1263.942     
    241800   297.31294     -218667.79      0             -218231.72     -1768.6927    
    241900   301.0617      -218674.07      0             -218232.5      -1030.839     
    242000   301.49161     -218672.59      0             -218230.39     -2397.6089    
    242100   301.47302     -218667.77      0             -218225.6      -1729.4497    
    242200   302.87769     -218662.49      0             -218218.26     -1075.9829    
    242300   304.31968     -218662.72      0             -218216.37     -1133.2665    
    242400   299.81435     -218667.39      0             -218227.65     -950.34192    
    242500   299.35047     -218670.52      0             -218231.46     -1249.0386    
    242600   302.09862     -218675.9       0             -218232.81     -1836.1595    
    242700   296.64573     -218665.15      0             -218230.05     -2198.1938    
    242800   303.55216     -218669.6       0             -218224.37     -1951.9974    
    242900   300.90385     -218663.48      0             -218222.14     -2180.3188    
    243000   301.26443     -218669.68      0             -218227.81     -2115.2385    
    243100   296.41878     -218670.22      0             -218235.46     -1610.6237    
    243200   298.33837     -218672.13      0             -218234.55     -322.85624    
    243300   299.52128     -218667.31      0             -218228        -339.81344    
    243400   300.05582     -218665.71      0             -218225.61     -510.88143    
    243500   300.03511     -218667.54      0             -218227.48     -1073.8569    
    243600   299.90595     -218672.24      0             -218232.36     -1697.8272    
    243700   297.68432     -218678.6       0             -218241.99     -1284.9245    
    243800   296.80693     -218674.82      0             -218239.49     -942.1819     
    243900   300.17828     -218673.86      0             -218233.58     -2538.1956    
    244000   299.42919     -218669.06      0             -218229.89     -1692.0324    
    244100   304.32679     -218673.1       0             -218226.73     -1114.4576    
    244200   300.07151     -218666.65      0             -218226.53     -590.94727    
    244300   299.39934     -218670.6       0             -218231.46     -987.83723    
    244400   291.56276     -218666.12      0             -218238.48     -1827.9872    
    244500   297.8084      -218672.04      0             -218235.24     -1868.312     
    244600   300.78315     -218670.9       0             -218229.74     -1765.6653    
    244700   299.65292     -218667.3       0             -218227.79     -1956.7032    
    244800   298.13219     -218664.71      0             -218227.44     -2050.0363    
    244900   301.20171     -218670.07      0             -218228.29     -1637.7929    
    245000   300.29424     -218675.02      0             -218234.57     -2330.9687    
    245100   297.82072     -218679.02      0             -218242.2      -789.27505    
    245200   297.66679     -218673.21      0             -218236.62     -2157.5897    
    245300   299.24428     -218669.79      0             -218230.89     -1937.4573    
    245400   302.17337     -218671.22      0             -218228.01     -1097.8995    
    245500   303.25322     -218671.75      0             -218226.96     -1169.8587    
    245600   298.62947     -218667.42      0             -218229.42     -1625.969     
    245700   300.25377     -218676.65      0             -218236.27     -635.92876    
    245800   297.75391     -218673.73      0             -218237.01     -876.62383    
    245900   300.4707      -218671.34      0             -218230.64     -1184.2814    
    246000   300.47555     -218666.11      0             -218225.4      -1506.9679    
    246100   299.38827     -218665.26      0             -218226.15     -2309.0229    
    246200   301.53081     -218672.67      0             -218230.41     -594.10639    
    246300   298.20768     -218671.22      0             -218233.83     -1947.5188    
    246400   300.54635     -218670.67      0             -218229.85     -2191.65      
    246500   301.74005     -218663.66      0             -218221.09     -1995.5444    
    246600   300.80631     -218664.57      0             -218223.37     -1413.1427    
    246700   301.40261     -218671.53      0             -218229.46     -705.34871    
    246800   296.87324     -218668.42      0             -218232.99     -377.08807    
    246900   299.65094     -218671.9       0             -218232.39     -1350.3602    
    247000   297.34816     -218666.13      0             -218230.01     -1360.6968    
    247100   301.02412     -218666.84      0             -218225.32     -652.14033    
    247200   306.16255     -218665.54      0             -218216.49     -756.18605    
    247300   303.92067     -218666.07      0             -218220.3      -321.90241    
    247400   300.01285     -218666.78      0             -218226.75     -355.23444    
    247500   300.95561     -218671.12      0             -218229.7      -1383.0866    
    247600   297.28831     -218669.8       0             -218233.77     -1501.1036    
    247700   301.09528     -218674.57      0             -218232.95     -2523.8828    
    247800   300.90596     -218668.15      0             -218226.81     -1897.1451    
    247900   303.92566     -218667.37      0             -218221.6      -2300.4321    
    248000   303.89207     -218670.2       0             -218224.48     -2037.4259    
    248100   301.54771     -218671.92      0             -218229.63     -1344.2861    
    248200   297.52934     -218667.84      0             -218231.45     -1757.3232    
    248300   301.58082     -218673.13      0             -218230.79     -945.32888    
    248400   298.70345     -218665.87      0             -218227.75     -1885.1937    
    248500   301.40412     -218664.12      0             -218222.05     -2065.2647    
    248600   305.05733     -218669.18      0             -218221.74     -2493.6259    
    248700   299.19484     -218670.31      0             -218231.48     -1783.6656    
    248800   296.78536     -218669.7       0             -218234.4      -1240.9665    
    248900   299.00431     -218672.49      0             -218233.94     -610.24619    
    249000   298.75992     -218666.61      0             -218228.42     -1628.5098    
    249100   303.96552     -218668.78      0             -218222.95     -1258.8926    
    249200   301.95303     -218668.31      0             -218225.43     -825.91398    
    249300   301.87515     -218678.98      0             -218236.22     -2310.3811    
    249400   302.73134     -218679.48      0             -218235.46     -1737.285     
    249500   299.25616     -218669.72      0             -218230.8      -2445.061     
    249600   300.89407     -218668.04      0             -218226.71     -1457.914     
    249700   300.92537     -218667.59      0             -218226.22     -710.73052    
    249800   301.32131     -218675.59      0             -218233.64     -537.51697    
    249900   297.47336     -218674.79      0             -218238.48     -146.98107    
    250000   302.18653     -218676.58      0             -218233.36     -418.2675     
    250100   298.47048     -218666.42      0             -218228.65     -1471.3946    
    250200   298.02998     -218665.07      0             -218227.95     -2264.2932    
    250300   298.86066     -218669.31      0             -218230.96     -2007.9281    
    250400   292.49021     -218669.85      0             -218240.85     -1478.3781    
    250500   298.44855     -218676.62      0             -218238.88     -1851.6407    
    250600   299.60685     -218672.28      0             -218232.84     -712.04885    
    250700   300.02894     -218670.02      0             -218229.96     -819.51663    
    250800   299.4793      -218668.4       0             -218229.15     -1964.5688    
    250900   297.89912     -218668.55      0             -218231.62     -1269.7102    
    251000   297.78916     -218676.29      0             -218239.52     -1341.0722    
    251100   297.58246     -218677.03      0             -218240.56     -2072.682     
    251200   299.80181     -218673.1       0             -218233.37     -740.62385    
    251300   299.21816     -218668.68      0             -218229.81     -1284.4178    
    251400   301.65838     -218670.72      0             -218228.27     -1879.5111    
    251500   297.37994     -218666.35      0             -218230.18     -2339.8614    
    251600   299.08421     -218673.83      0             -218235.15     -1495.2768    
    251700   295.44862     -218675.07      0             -218241.73     -1932.3641    
    251800   299.06912     -218678.13      0             -218239.48     -2678.798     
    251900   301.19237     -218672.19      0             -218230.43     -1721.4153    
    252000   301.7051      -218671.81      0             -218229.3      -2523.2403    
    252100   301.3851      -218671.46      0             -218229.41     -915.17481    
    252200   297.8594      -218669.27      0             -218232.4      -1217.1839    
    252300   298.19304     -218674.85      0             -218237.49     -1528.7595    
    252400   299.08749     -218678.42      0             -218239.74     -660.2475     
    252500   299.26124     -218670.75      0             -218231.82     -1541.6198    
    252600   302.09871     -218669.05      0             -218225.96     -1598.6223    
    252700   299.55503     -218666.36      0             -218227        -603.75977    
    252800   299.26984     -218671.58      0             -218232.63     -1147.3372    
    252900   297.75918     -218672.63      0             -218235.9      -995.54931    
    253000   300.87274     -218675.31      0             -218234.01     -1311.1826    
    253100   303.67275     -218668.59      0             -218223.19     -1473.862     
    253200   304.84833     -218669.74      0             -218222.62     -1492.2619    
    253300   299.62603     -218668.69      0             -218229.22     -2445.1289    
    253400   300.00948     -218673.68      0             -218233.65     -1985.3849    
    253500   299.50871     -218673.59      0             -218234.29     -1760.5264    
    253600   299.89773     -218672.12      0             -218232.25     -567.10747    
    253700   302.26371     -218666.79      0             -218223.46     -1023.2765    
    253800   305.61507     -218669.35      0             -218221.1      -2185.5029    
    253900   302.44992     -218670.12      0             -218226.51     -1239.7501    
    254000   298.1267      -218667.73      0             -218230.46     -1595.8324    
    254100   297.9978      -218669.4       0             -218232.32     -2350.3778    
    254200   299.87876     -218672.08      0             -218232.25     -1952.2988    
    254300   301.29648     -218673.29      0             -218231.38     -1588.7254    
    254400   300.56822     -218667.43      0             -218226.58     -1232.4772    
    254500   301.39126     -218667.28      0             -218225.23     -1625.7788    
    254600   297.87197     -218668.61      0             -218231.71     -2329.7882    
    254700   298.37724     -218673.25      0             -218235.61     -1595.8062    
    254800   298.4203      -218672.7       0             -218235        -2024.8339    
    254900   300.5147      -218673.76      0             -218232.99     -541.93458    
    255000   296.55845     -218667.17      0             -218232.2      -1724.2303    
    255100   300.15012     -218671.25      0             -218231.02     -2253.8651    
    255200   299.07091     -218669.76      0             -218231.11     -1783.2988    
    255300   300.28233     -218670.08      0             -218229.65     -2003.5962    
    255400   303.00702     -218671.53      0             -218227.11     -2245.8896    
    255500   301.88282     -218670.51      0             -218227.73     -951.42514    
    255600   300.62975     -218673.19      0             -218232.25     -1226.3013    
    255700   300.61692     -218677.11      0             -218236.19     -1225.8604    
    255800   298.3671      -218674.54      0             -218236.92     -1296.7734    
    255900   301.40793     -218670.4       0             -218228.32     -1860.0314    
    256000   301.6331      -218666.98      0             -218224.57     -1624.4442    
    256100   301.16352     -218670.24      0             -218228.52     -1586.0249    
    256200   299.31828     -218673.12      0             -218234.1      -1732.2242    
    256300   299.21064     -218674.22      0             -218235.36     -1415.8736    
    256400   302.97825     -218676.71      0             -218232.33     -1399.6152    
    256500   301.01516     -218662.82      0             -218221.32     -1624.5384    
    256600   302.24955     -218665.99      0             -218222.67     -2459.599     
    256700   300.19221     -218669.54      0             -218229.25     -1130.0097    
    256800   302.22605     -218676.69      0             -218233.41     -1754.1744    
    256900   299.94655     -218674.33      0             -218234.4      -782.24274    
    257000   302.08354     -218675.66      0             -218232.59     -1432.609     
    257100   300.1489      -218664.81      0             -218224.57     -938.8882     
    257200   302.5927      -218666.02      0             -218222.2      -1482.1805    
    257300   299.44826     -218667.53      0             -218228.33     -1012.2474    
    257400   299.49436     -218671.6       0             -218232.33     -2574.6566    
    257500   299.38134     -218670.85      0             -218231.74     -1857.5454    
    257600   299.17634     -218671.38      0             -218232.57     -1761.5099    
    257700   299.04232     -218671.33      0             -218232.72     -381.43617    
    257800   299.92591     -218670.16      0             -218230.25     -1412.7252    
    257900   301.63703     -218667.85      0             -218225.43     -2031.1696    
    258000   300.55582     -218667.45      0             -218226.62     -891.40698    
    258100   298.32379     -218671.86      0             -218234.3      -1871.5275    
    258200   296.94523     -218672.6       0             -218237.07     -1380.8932    
    258300   298.09862     -218672.22      0             -218234.99     -1190.1751    
    258400   302.43975     -218674.59      0             -218230.99     -1282.3372    
    258500   298.96572     -218667.42      0             -218228.92     -1330.9406    
    258600   300.78392     -218669.72      0             -218228.56     -772.86116    
    258700   301.48863     -218672.65      0             -218230.45     -1167.8041    
    258800   300.92007     -218672.64      0             -218231.28     -1568.8203    
    258900   297.07883     -218667.42      0             -218231.69     -1107.7074    
    259000   300.54284     -218672.03      0             -218231.22     -698.75116    
    259100   303.11074     -218673.78      0             -218229.2      -1148.0338    
    259200   301.50281     -218671.85      0             -218229.64     -780.28401    
    259300   296.7404      -218667.22      0             -218231.99     -1685.5889    
    259400   299.26263     -218673.78      0             -218234.84     -1895.1246    
    259500   298.94319     -218676.45      0             -218237.99     -1204.8828    
    259600   297.05771     -218674.11      0             -218238.41     -1195.2998    
    259700   299.25591     -218669.35      0             -218230.42     -1656.8872    
    259800   302.83236     -218669.78      0             -218225.61     -1708.1653    
    259900   300.70798     -218669.42      0             -218228.37     -2136.8045    
    260000   298.82244     -218672.18      0             -218233.89     -549.99157    
    260100   300.14345     -218674.75      0             -218234.53     -800.39312    
    260200   301.13166     -218673.98      0             -218232.31     -1311.8376    
    260300   298.55695     -218667.99      0             -218230.09     -1697.4078    
    260400   301.00011     -218671.42      0             -218229.94     -1410.3918    
    260500   297.93292     -218668.27      0             -218231.29     -2714.2434    
    260600   300.24979     -218672.03      0             -218231.65     -1774.0688    
    260700   300.71301     -218671.28      0             -218230.22     -1811.2922    
    260800   302.03064     -218672.58      0             -218229.59     -900.71576    
    260900   301.52761     -218674.17      0             -218231.92     -615.40581    
    261000   300.54502     -218674.76      0             -218233.94     -942.60173    
    261100   298.57731     -218673.77      0             -218235.85     -715.39963    
    261200   300.43077     -218674.91      0             -218234.26     -1577.8887    
    261300   298.44332     -218664.61      0             -218226.88     -1951.6557    
    261400   303.49403     -218669.7       0             -218224.56     -1258.1518    
    261500   298.92171     -218666.73      0             -218228.3      -1011.5492    
    261600   298.75247     -218672.8       0             -218234.62     -1271.3332    
    261700   292.867       -218672.1       0             -218242.55     -1200.131     
    261800   300.51178     -218681.34      0             -218240.58     -1578.3907    
    261900   298.53536     -218672.81      0             -218234.94     -379.06744    
    262000   300.37136     -218669.17      0             -218228.61     -1385.3498    
    262100   301.02802     -218668.44      0             -218226.92     -1650.9133    
    262200   301.63187     -218673.02      0             -218230.61     -1654.1419    
    262300   298.88837     -218676.2       0             -218237.82     -1791.1392    
    262400   298.18119     -218675.41      0             -218238.06     -596.32999    
    262500   299.40784     -218673.84      0             -218234.69     -781.01041    
    262600   298.66588     -218670.69      0             -218232.63     -1283.0209    
    262700   301.75526     -218673.82      0             -218231.23     -1270.998     
    262800   300.24333     -218669.32      0             -218228.95     -938.56095    
    262900   301.5975      -218667.57      0             -218225.21     -1561.8605    
    263000   304.03442     -218670.92      0             -218224.99     -1495.0118    
    263100   301.38132     -218673.54      0             -218231.5      -1014.2255    
    263200   298.17429     -218674.15      0             -218236.81     -2433.6034    
    263300   298.63614     -218672.93      0             -218234.91     -2391.1651    
    263400   300.33743     -218670.85      0             -218230.34     -1049.3268    
    263500   299.689       -218668.46      0             -218228.91     -1337.1375    
    263600   301.20072     -218671.44      0             -218229.66     -1182.3856    
    263700   300.30983     -218671.07      0             -218230.6       372.52502    
    263800   300.17652     -218675.79      0             -218235.51     -280.20098    
    263900   298.065       -218677.39      0             -218240.21     -463.86321    
    264000   296.11255     -218676.54      0             -218242.22     -781.53884    
    264100   298.03683     -218670.48      0             -218233.34     -2171.7841    
    264200   301.2303      -218669.39      0             -218227.57     -2117.377     
    264300   299.74009     -218666.59      0             -218226.96     -1932.9859    
    264400   301.43535     -218673.78      0             -218231.66     -1644.7139    
    264500   296.89458     -218672.92      0             -218237.46     -1093.0784    
    264600   296.78488     -218673.13      0             -218237.83     -1016.9104    
    264700   299.89009     -218668.32      0             -218228.47     -1211.548     
    264800   301.90906     -218667.86      0             -218225.05     -2426.1967    
    264900   300.2207      -218669.4       0             -218229.06     -2049.9882    
    265000   297.37668     -218670.65      0             -218234.48     -1587.2873    
    265100   300.9759      -218677.57      0             -218236.13     -1454.6605    
    265200   301.20061     -218674.1       0             -218232.32     -941.2007     
    265300   304.79893     -218671.67      0             -218224.62     -569.53766    
    265400   303.33734     -218671.26      0             -218226.35     -1058.6234    
    265500   300.06677     -218671.56      0             -218231.45     -1451.3745    
    265600   300.10064     -218674.11      0             -218233.94     -1240.0873    
    265700   298.03371     -218671.94      0             -218234.8      -1145.1635    
    265800   299.7242      -218672.29      0             -218232.68     -1114.0087    
    265900   305.87993     -218674.22      0             -218225.58     -1779.1231    
    266000   303.66389     -218668.27      0             -218222.89     -1872.6721    
    266100   299.03537     -218670.52      0             -218231.92     -795.54105    
    266200   296.30662     -218671.78      0             -218237.18     -1569.5638    
    266300   299.40694     -218675.86      0             -218236.71     -337.9676     
    266400   300.33767     -218673.36      0             -218232.85     -715.79229    
    266500   304.81354     -218674.19      0             -218227.11     -1181.3582    
    266600   306.56435     -218675.19      0             -218225.54     -1614.6881    
    266700   298.92165     -218674.47      0             -218236.04     -47.588997    
    266800   299.1054      -218677.83      0             -218239.13     -2118.4548    
    266900   298.87436     -218674.31      0             -218235.94     -2532.0308    
    267000   300.0574      -218670.68      0             -218230.58     -1927.2325    
    267100   305.07957     -218676.02      0             -218228.55     -3176.4668    
    267200   300.20033     -218673.82      0             -218233.51     -2222.5141    
    267300   297.24098     -218678.58      0             -218242.62     -1873.9657    
    267400   297.21913     -218676.61      0             -218240.68     -1919.539     
    267500   299.06475     -218673.16      0             -218234.52     -1489.9867    
    267600   300.71114     -218673.48      0             -218232.42     -1647.716     
    267700   300.22211     -218673.72      0             -218233.38     -855.83034    
    267800   297.63148     -218672.96      0             -218236.42     -919.03153    
    267900   300.18825     -218680.21      0             -218239.92     -1358.0791    
    268000   296.46859     -218677.33      0             -218242.5      -2493.3248    
    268100   303.16563     -218681.46      0             -218236.8      -2383.157     
    268200   298.96465     -218669.85      0             -218231.35     -1928.3902    
    268300   300.70646     -218671.85      0             -218230.8      -785.54039    
    268400   302.57198     -218676.73      0             -218232.94     -1843.7631    
    268500   299.35595     -218680.8       0             -218241.73     -1068.3334    
    268600   298.12051     -218679.54      0             -218242.29     -1458.3703    
    268700   298.8708      -218675.52      0             -218237.16     -1526.7835    
    268800   300.18063     -218674.74      0             -218234.46     -2079.8363    
    268900   300.60472     -218673.34      0             -218232.44     -3150.2134    
    269000   298.45552     -218670.5       0             -218232.75     -1608.9948    
    269100   296.99304     -218670.35      0             -218234.75     -747.34492    
    269200   299.06282     -218676.71      0             -218238.07     -617.09491    
    269300   298.92518     -218675.23      0             -218236.79     -1719.7034    
    269400   301.98271     -218673.85      0             -218230.92     -1801.623     
    269500   302.96424     -218671.41      0             -218227.05     -2505.4761    
    269600   300.44664     -218671.61      0             -218230.94     -1797.313     
    269700   294.88774     -218672.75      0             -218240.23     -2511.3732    
    269800   298.01242     -218676.21      0             -218239.12     -2009.554     
    269900   300.99474     -218675.34      0             -218233.86     -1074.7825    
    270000   303.6237      -218675.09      0             -218229.76     -827.02436    
    270100   299.40989     -218669.98      0             -218230.83     -1753.7086    
    270200   300.05082     -218675.04      0             -218234.95     -2482.6445    
    270300   296.3263      -218679.53      0             -218244.9      -553.35016    
    270400   296.44501     -218679.26      0             -218244.46     -876.88023    
    270500   299.33681     -218678.63      0             -218239.59     -473.08391    
    270600   300.78333     -218676.09      0             -218234.92     -1511.6035    
    270700   300.8594      -218672.65      0             -218231.37     -1575.1814    
    270800   298.29566     -218668.56      0             -218231.04     -1830.2351    
    270900   300.55082     -218670.29      0             -218229.47     -1767.9523    
    271000   301.68768     -218674         0             -218231.51     -2068.6599    
    271100   298.09778     -218673.6       0             -218236.38     -1739.0172    
    271200   296.83209     -218675.03      0             -218239.66     -1854.4319    
    271300   297.84586     -218673.75      0             -218236.89     -658.6768     
    271400   302.05363     -218671         0             -218227.97     -1764.7734    
    271500   299.16483     -218666.82      0             -218228.03     -1523.1299    
    271600   300.96925     -218672.77      0             -218231.34     -1764.9777    
    271700   300.83661     -218677.51      0             -218236.27     -1679.0627    
    271800   300.74751     -218677.99      0             -218236.88     -1163.6622    
    271900   301.97549     -218675.77      0             -218232.86     -1201.9956    
    272000   301.11785     -218666.54      0             -218224.89     -1307.9545    
    272100   302.4838      -218669.87      0             -218226.22     -1633.0178    
    272200   301.91123     -218676.26      0             -218233.44     -1488.0958    
    272300   298.05331     -218673.63      0             -218236.47     -2445.1163    
    272400   298.96019     -218673.24      0             -218234.76     -1691.4484    
    272500   301.8155      -218672         0             -218229.32     -2465.2223    
    272600   303.76297     -218667.05      0             -218221.51     -1992.5689    
    272700   300.36678     -218660.26      0             -218219.71     -1556.6274    
    272800   297.83375     -218667.52      0             -218230.68     -1801.281     
    272900   298.19556     -218671.59      0             -218234.22     -2335.3178    
    273000   299.19994     -218674.5       0             -218235.66     -2359.8443    
    273100   299.66673     -218673.55      0             -218234.02     -1900.5961    
    273200   298.54985     -218667.39      0             -218229.5      -2127.5135    
    273300   305.0766      -218672.65      0             -218225.19     -809.18832    
    273400   300.3919      -218668.52      0             -218227.93     -721.22519    
    273500   297.51257     -218673.24      0             -218236.87     -104.47568    
    273600   298.91764     -218676.78      0             -218238.35     -2405.36      
    273700   302.6263      -218678.34      0             -218234.47     -1985.0503    
    273800   303.53506     -218674.42      0             -218229.22     -1303.9827    
    273900   303.21215     -218670.57      0             -218225.84     -1535.0904    
    274000   299.16503     -218664.27      0             -218225.48     -1732.2576    
    274100   295.04377     -218664.14      0             -218231.39     -2001.8256    
    274200   297.94784     -218673.7       0             -218236.69     -2356.4691    
    274300   302.1487      -218680.7       0             -218237.54     -811.7319     
    274400   300.24216     -218674.9       0             -218234.53     -1433.3718    
    274500   301.13026     -218668.62      0             -218226.95     -1585.4747    
    274600   303.07805     -218670.59      0             -218226.06     -276.35633    
    274700   298.97899     -218669.53      0             -218231.02     -725.5931     
    274800   299.73806     -218672.98      0             -218233.35     -1181.4525    
    274900   302.61186     -218678.01      0             -218234.16     -944.65547    
    275000   295.41909     -218668.86      0             -218235.56     -721.34057    
    275100   300.61999     -218674.37      0             -218233.45     -1279.1373    
    275200   304.31521     -218674.35      0             -218228        -1436.7507    
    275300   306.91144     -218676.71      0             -218226.56     -1087.8249    
    275400   300.66134     -218674.42      0             -218233.44     -1966.1304    
    275500   299.15475     -218676.39      0             -218237.61     -2574.2055    
    275600   300.42991     -218677.43      0             -218236.78     -1354.9254    
    275700   299.91618     -218674.83      0             -218234.93     -2391.7229    
    275800   300.0983      -218673.2       0             -218233.04     -2127.0565    
    275900   298.77531     -218670.98      0             -218232.77     -2322.7399    
    276000   299.25452     -218672.79      0             -218233.87     -2281.4301    
    276100   302.62978     -218678.72      0             -218234.85     -1260.7785    
    276200   300.20019     -218675.57      0             -218235.26     -1104.2103    
    276300   300.60549     -218675.43      0             -218234.53     -2006.9462    
    276400   298.4804      -218669.37      0             -218231.59     -829.12449    
    276500   301.02659     -218670.33      0             -218228.81     -593.48717    
    276600   300.87926     -218672.22      0             -218230.92     -306.65384    
    276700   296.08419     -218672.7       0             -218238.43     -2234.1098    
    276800   299.5029      -218677.98      0             -218238.7      -2552.8629    
    276900   296.30534     -218670.23      0             -218235.64     -2041.8422    
    277000   301.64867     -218668.19      0             -218225.76     -1551.7548    
    277100   300.27932     -218667.33      0             -218226.91     -2042.0205    
    277200   299.47817     -218671.39      0             -218232.14     -1710.3813    
    277300   300.37017     -218676.83      0             -218236.27     -2725.5346    
    277400   297.21149     -218673.15      0             -218237.22     -1706.4199    
    277500   301.42292     -218673.79      0             -218231.69     -1766.8569    
    277600   303.66266     -218669.07      0             -218223.68     -1908.0711    
    277700   303.93367     -218672.9       0             -218227.12     -2221.0885    
    277800   299.84281     -218672.83      0             -218233.05     -843.42015    
    277900   299.20125     -218674.39      0             -218235.55     -1253.2461    
    278000   295.91423     -218670.06      0             -218236.04     -1352.9923    
    278100   302.17331     -218674.56      0             -218231.35     -1259.4061    
    278200   304.80023     -218671.38      0             -218224.33     -2248.5455    
    278300   302.21035     -218667.33      0             -218224.07     -2558.4777    
    278400   301.18501     -218674.92      0             -218233.17     -2266.1037    
    278500   297.31097     -218671.9       0             -218235.83     -1845.9785    
    278600   300.42375     -218674.77      0             -218234.14     -1848.2574    
    278700   303.20391     -218673.81      0             -218229.1      -1292.516     
    278800   301.56966     -218668.56      0             -218226.25     -349.268      
    278900   297.75005     -218670         0             -218233.28     -991.53772    
    279000   296.09274     -218673.5       0             -218239.22     -513.87387    
    279100   298.38715     -218675.64      0             -218237.99     -1433.9077    
    279200   299.53359     -218671.67      0             -218232.34     -2021.9618    
    279300   301.20762     -218670.16      0             -218228.38     -2939.8257    
    279400   300.58078     -218670.24      0             -218229.37     -1162.6382    
    279500   303.40571     -218676.48      0             -218231.47     -1367.132     
    279600   298.26231     -218670.47      0             -218233        -855.20524    
    279700   299.39997     -218671.93      0             -218232.8      -2771.0391    
    279800   297.55166     -218671.65      0             -218235.22     -1763.3493    
    279900   297.26124     -218676.95      0             -218240.95     -1122.1548    
    280000   294.99955     -218674.53      0             -218241.85     -1883.4476    
    280100   301.72599     -218675.53      0             -218232.98     -538.41013    
    280200   304.61397     -218677.62      0             -218230.84     -1656.2681    
    280300   301.64122     -218676.65      0             -218234.23     -909.73977    
    280400   298.69916     -218675.02      0             -218236.92     -677.61323    
    280500   299.27001     -218676.99      0             -218238.05     -1575.9194    
    280600   299.79086     -218675.57      0             -218235.87     -1019.1433    
    280700   299.94759     -218670.99      0             -218231.05     -1886.5681    
    280800   302.46076     -218672.42      0             -218228.79     -2105.0104    
    280900   299.72324     -218669.79      0             -218230.18     -1408.7286    
    281000   299.43635     -218677.02      0             -218237.83     -1803.5361    
    281100   298.94524     -218679.39      0             -218240.92     -1544.7808    
    281200   299.82808     -218676.71      0             -218236.95     -1982.979     
    281300   300.10106     -218673.1       0             -218232.94     -2401.5069    
    281400   302.38585     -218676.23      0             -218232.72     -2579.7025    
    281500   300.80328     -218674.62      0             -218233.43     -1306.5501    
    281600   300.86324     -218675.75      0             -218234.47     -1862.5561    
    281700   295.99209     -218672.66      0             -218238.52     -1790.5164    
    281800   300.65617     -218682.55      0             -218241.57     -853.79299    
    281900   298.9082      -218678.72      0             -218240.31     -701.24443    
    282000   300.11768     -218672.18      0             -218231.99     -1503.6474    
    282100   304.76091     -218676.96      0             -218229.97     -1428.9358    
    282200   298.25369     -218671.28      0             -218233.82     -1866.5947    
    282300   298.16075     -218674.08      0             -218236.76     -3126.0377    
    282400   299.62322     -218677.9       0             -218238.44     -1621.0144    
    282500   297.77496     -218675.75      0             -218239        -2355.3709    
    282600   301.32046     -218677.27      0             -218235.32     -2852.3911    
    282700   301.97086     -218673.22      0             -218230.32     -2457.4696    
    282800   304.27522     -218674.72      0             -218228.44     -992.00137    
    282900   303.56156     -218677.33      0             -218232.09     -1813.8925    
    283000   298.31303     -218677.73      0             -218240.19     -1215.3867    
    283100   297.98737     -218677.72      0             -218240.66     -1689.8327    
    283200   300.01137     -218676.16      0             -218236.13     -1276.5603    
    283300   300.81645     -218673.41      0             -218232.19     -1549.3752    
    283400   299.3816      -218671.66      0             -218232.55     -1391.3319    
    283500   299.43746     -218673.21      0             -218234.02     -2679.8287    
    283600   297.41805     -218672.59      0             -218236.36     -2125.3656    
    283700   296.44182     -218676.41      0             -218241.61     -1980.7775    
    283800   296.34314     -218681.23      0             -218246.58     -1692.2866    
    283900   296.05817     -218675.27      0             -218241.04     -1044.0348    
    284000   297.71486     -218670.89      0             -218234.23     -785.32148    
    284100   301.61001     -218674.75      0             -218232.37     -2436.8464    
    284200   299.87987     -218673.86      0             -218234.02     -1673.6456    
    284300   300.28078     -218676.98      0             -218236.56     -1548.0574    
    284400   298.30164     -218678         0             -218240.47     -1299.9305    
    284500   298.66478     -218677.7       0             -218239.64     -2116.7179    
    284600   298.94361     -218671.39      0             -218232.93     -527.32348    
    284700   303.28672     -218672.92      0             -218228.09     -1733.8931    
    284800   302.78238     -218673.99      0             -218229.89     -2162.0618    
    284900   299.74661     -218674.2       0             -218234.56     -1943.7548    
    285000   302.6779      -218681.02      0             -218237.08     -2303.0697    
    285100   299.02352     -218675.3       0             -218236.72     -2103.1082    
    285200   301.60552     -218677.17      0             -218234.8      -2315.076     
    285300   303.22442     -218675.1       0             -218230.35     -2224.2506    
    285400   299.76134     -218667.06      0             -218227.39     -2018.1141    
    285500   300.22908     -218671.55      0             -218231.2      -2116.2414    
    285600   297.4689      -218675.19      0             -218238.89     -1213.8198    
    285700   298.90349     -218677.74      0             -218239.33     -1905.9445    
    285800   298.4554      -218672.73      0             -218234.98     -1661.7319    
    285900   299.65112     -218669.68      0             -218230.18     -1601.2351    
    286000   303.40195     -218669.09      0             -218224.09      18.917985    
    286100   306.18192     -218669.85      0             -218220.77     -1536.7958    
    286200   304.3143      -218676.34      0             -218230        -964.13364    
    286300   299.48119     -218674.24      0             -218234.98     -1259.95      
    286400   298.41248     -218674.51      0             -218236.83     -2207.6423    
    286500   298.90463     -218676.46      0             -218238.05     -3177.2089    
    286600   298.99005     -218676.12      0             -218237.58     -3438.9047    
    286700   299.90905     -218672.29      0             -218232.4      -1697.4168    
    286800   301.85929     -218670.6       0             -218227.86     -1406.8155    
    286900   301.42151     -218672.24      0             -218230.14     -1695.7479    
    287000   297.62856     -218676.26      0             -218239.72     -1501.0167    
    287100   301.16159     -218682.27      0             -218240.55     -2995.8743    
    287200   297.43193     -218673.28      0             -218237.03     -3208.369     
    287300   299.33022     -218671.06      0             -218232.03     -1665.3177    
    287400   303.2043      -218675.93      0             -218231.22     -738.23361    
    287500   300.93782     -218675.78      0             -218234.39     -1104.2918    
    287600   296.32361     -218679.78      0             -218245.16     -1504.0705    
    287700   299.43609     -218683.17      0             -218243.98     -1309.237     
    287800   299.10241     -218675.58      0             -218236.89     -2291.2627    
    287900   301.65888     -218675.18      0             -218232.73     -1344.8363    
    288000   301.45364     -218673.57      0             -218231.42     -1348.4987    
    288100   298.77375     -218674.01      0             -218235.79     -1853.7668    
    288200   294.53193     -218675.73      0             -218243.73     -2576.7615    
    288300   297.75795     -218680.02      0             -218243.3      -2253.4348    
    288400   295.6455      -218672.85      0             -218239.22     -1558.7606    
    288500   299.35744     -218675.08      0             -218236        -1927.4566    
    288600   300.3641      -218673.45      0             -218232.9      -509.04829    
    288700   302.31244     -218675.17      0             -218231.76     -695.57319    
    288800   299.46692     -218673.52      0             -218234.29     -2563.0658    
    288900   299.93667     -218680.67      0             -218240.75     -2601.7353    
    289000   296.60013     -218677.01      0             -218241.99     -2054.157     
    289100   300.40816     -218675.76      0             -218235.15     -1970.3857    
    289200   299.40781     -218669.7       0             -218230.56     -2501.1588    
    289300   300.1306      -218672.15      0             -218231.94     -1313.1727    
    289400   298.83238     -218673.14      0             -218234.84     -1201.7688    
    289500   300.36345     -218679.22      0             -218238.67     -1605.6987    
    289600   295.93765     -218679.57      0             -218245.52     -1838.2997    
    289700   293.97939     -218678.75      0             -218247.57     -1773.1807    
    289800   299.45542     -218677.31      0             -218238.09     -1447.0793    
    289900   300.31424     -218675.08      0             -218234.6      -1566.4327    
    290000   300.00736     -218673.44      0             -218233.42     -1341.1235    
    290100   300.84599     -218674.61      0             -218233.36     -1421.4406    
    290200   301.25771     -218679.31      0             -218237.45     -2322.2952    
    290300   295.97066     -218676.48      0             -218242.38     -2378.8333    
    290400   300.44396     -218682.86      0             -218242.2      -1208.9992    
    290500   301.80989     -218675.25      0             -218232.58     -1953.4387    
    290600   298.07099     -218667.65      0             -218230.46     -1533.9672    
    290700   299.5947      -218672.8       0             -218233.38     -1784.7132    
    290800   296.067       -218672.81      0             -218238.56     -2816.31      
    290900   297.27949     -218677.97      0             -218241.95     -1725.8318    
    291000   300.1036      -218680.45      0             -218240.29     -1854.6508    
    291100   301.60455     -218674.82      0             -218232.45     -1964.3067    
    291200   302.67649     -218672.98      0             -218229.04     -1815.2178    
    291300   298.13527     -218669.36      0             -218232.08     -1457.0206    
    291400   297.734       -218674.93      0             -218238.24     -1998.9116    
    291500   297.06602     -218677.14      0             -218241.43     -2215.728     
    291600   297.74328     -218675.6       0             -218238.89     -1644.3409    
    291700   303.21107     -218673.1       0             -218228.37     -2673.2689    
    291800   302.45044     -218673.1       0             -218229.49     -1859.0948    
    291900   299.92224     -218675.41      0             -218235.51     -2239.9729    
    292000   296.87238     -218675.07      0             -218239.64     -1591.0985    
    292100   296.90256     -218673.57      0             -218238.1      -1616.2863    
    292200   301.43327     -218672.83      0             -218230.72     -922.81543    
    292300   302.87565     -218669.96      0             -218225.73     -799.86841    
    292400   299.82431     -218668.18      0             -218228.43     -1790.2832    
    292500   299.73103     -218673.97      0             -218234.35     -1047.6154    
    292600   302.70342     -218681.27      0             -218237.29     -1587.6806    
    292700   298.53503     -218676.97      0             -218239.1      -2113.9606    
    292800   301.54624     -218676.47      0             -218234.18     -1472.657     
    292900   301.4799      -218668.86      0             -218226.67     -786.75677    
    293000   302.09004     -218672.57      0             -218229.49     -2438.1878    
    293100   297.35837     -218670.57      0             -218234.43     -2330.8571    
    293200   298.91194     -218674.78      0             -218236.36     -995.61714    
    293300   300.17122     -218676.01      0             -218235.74     -822.53005    
    293400   299.54999     -218673.49      0             -218234.14     -2561.1829    
    293500   300.3698      -218668.25      0             -218227.69     -2894.4849    
    293600   300.83467     -218667.08      0             -218225.84     -1875.2867    
    293700   300.53086     -218672.99      0             -218232.2      -1003.3901    
    293800   299.10989     -218676.24      0             -218237.53     -1827.8131    
    293900   298.3797      -218675.79      0             -218238.16     -1675.0774    
    294000   298.61371     -218673.26      0             -218235.28     -1915.0951    
    294100   301.37432     -218671.62      0             -218229.59     -1809.8151    
    294200   304.19052     -218669.57      0             -218223.41     -380.12854    
    294300   303.26928     -218673.74      0             -218228.93     -1781.7702    
    294400   302.58883     -218677.26      0             -218233.45     -2118.7794    
    294500   299.15735     -218675.08      0             -218236.3      -1948.0124    
    294600   301.42995     -218680.55      0             -218238.44     -2360.0297    
    294700   298.02492     -218675.49      0             -218238.37     -1576.6501    
    294800   298.29727     -218669.11      0             -218231.6      -1650.0786    
    294900   302.73751     -218671.63      0             -218227.6      -1913.4289    
    295000   304.29204     -218677.82      0             -218231.51     -2227.7493    
    295100   299.15269     -218676.44      0             -218237.67     -986.74301    
    295200   297.34373     -218673.72      0             -218237.6      -2716.331     
    295300   299.50356     -218675.06      0             -218235.77     -1977.424     
    295400   300.875       -218674.4       0             -218233.1      -2649.3721    
    295500   303.38996     -218673.61      0             -218228.63     -2314.0947    
    295600   301.68938     -218667         0             -218224.51     -808.71581    
    295700   301.69503     -218674.19      0             -218231.69     -1715.0239    
    295800   297.54096     -218673.23      0             -218236.82     -604.8405     
    295900   298.79512     -218675.96      0             -218237.71     -797.03334    
    296000   300.90613     -218676.38      0             -218235.03     -1219.1353    
    296100   303.15091     -218673.4       0             -218228.76     -558.04707    
    296200   302.39642     -218670.06      0             -218226.53     -1870.5317    
    296300   300.37054     -218675.64      0             -218235.08     -2101.408     
    296400   298.14664     -218677.19      0             -218239.9      -2290.0729    
    296500   298.77911     -218676.7       0             -218238.48     -1962.7152    
    296600   300.24552     -218673.04      0             -218232.67     -2871.2426    
    296700   302.31892     -218671.48      0             -218228.06     -2138.7505    
    296800   302.84841     -218673.8       0             -218229.61     -1601.0568    
    296900   295.41984     -218673.14      0             -218239.84     -1410.9947    
    297000   299.34287     -218679.52      0             -218240.47     -2202.8067    
    297100   299.85698     -218675.86      0             -218236.05     -1674.1914    
    297200   302.16145     -218674.03      0             -218230.85     -1709.6596    
    297300   300.84774     -218671.29      0             -218230.03     -814.77973    
    297400   301.02258     -218676.34      0             -218234.83     -1460.6585    
    297500   297.6394      -218678.1       0             -218241.54     -1915.764     
    297600   296.87217     -218675.72      0             -218240.3      -614.1197     
    297700   298.43676     -218673.36      0             -218235.64     -1799.9173    
    297800   303.05951     -218677.9       0             -218233.4      -1523.8604    
    297900   300.35707     -218674.57      0             -218234.03     -639.81835    
    298000   302.12048     -218677.64      0             -218234.52     -2354.7249    
    298100   300.66977     -218677.45      0             -218236.45     -2512.3806    
    298200   297.48305     -218674.82      0             -218238.5      -1253.3292    
    298300   297.48558     -218674.86      0             -218238.53     -1469.9332    
    298400   299.70372     -218675.31      0             -218235.73     -1406.7888    
    298500   301.07915     -218674.02      0             -218232.42     -1330.7459    
    298600   301.78905     -218673.17      0             -218230.53     -1717.0555    
    298700   300.06845     -218673.15      0             -218233.04     -1291.9716    
    298800   297.99532     -218677.38      0             -218240.31     -804.58977    
    298900   294.81334     -218673.78      0             -218241.38     -737.23831    
    299000   300.27055     -218676.06      0             -218235.64     -3345.2595    
    299100   300.66069     -218669.94      0             -218228.95     -1391.9416    
    299200   301.09456     -218670.78      0             -218229.16     -1854.6499    
    299300   301.29302     -218673.73      0             -218231.82     -1057.3051    
    299400   298.6435      -218673.57      0             -218235.54     -2080.3263    
    299500   300.32639     -218680.04      0             -218239.55     -2150.2772    
    299600   298.39942     -218678.4       0             -218240.74     -1683.9386    
    299700   300.01451     -218672.87      0             -218232.84     -2157.112     
    299800   304.08941     -218674.92      0             -218228.9      -2263.2777    
    299900   299.93567     -218670.58      0             -218230.66     -771.53904    
    300000   301.28406     -218680.18      0             -218238.28     -1173.9057    
    300100   299.74713     -218680.24      0             -218240.6      -626.86935    
    300200   299.12379     -218676.83      0             -218238.11     -2225.3611    
    300300   298.17442     -218672.46      0             -218235.12     -1388.2288    
    300400   298.20592     -218672.29      0             -218234.91     -1264.879     
    300500   299.08848     -218673.36      0             -218234.68     -1959.036     
    300600   298.994       -218672.93      0             -218234.39     -1233.6523    
    300700   301.45316     -218676.73      0             -218234.58     -1516.6428    
    300800   294.7246      -218675.04      0             -218242.76     -2278.9914    
    300900   297.84598     -218682.63      0             -218245.77     -1210.7102    
    301000   300.14984     -218679.26      0             -218239.02     -1383.1639    
    301100   300.92666     -218675.46      0             -218234.09     -2439.0166    
    301200   299.98677     -218673.16      0             -218233.16     -1707.3881    
    301300   301.38314     -218677.26      0             -218235.22     -401.7707     
    301400   298.45554     -218681.33      0             -218243.58     -920.00268    
    301500   293.53507     -218675.03      0             -218244.5      -950.72724    
    301600   296.72337     -218674.59      0             -218239.38     -1362.2708    
    301700   300.14256     -218676.31      0             -218236.09     -2060.3707    
    301800   299.55899     -218673         0             -218233.63     -2661.0675    
    301900   300.94556     -218673.86      0             -218232.46     -944.81664    
    302000   300.9241      -218675.82      0             -218234.45     -2652.4986    
    302100   297.41543     -218677.16      0             -218240.93     -1776.0915    
    302200   298.07088     -218678.66      0             -218241.47     -1739.4525    
    302300   299.15235     -218673.77      0             -218234.99     -1164.8546    
    302400   297.88772     -218666.42      0             -218229.5      -1962.3148    
    302500   299.9135      -218671.2       0             -218231.32     -1832.5947    
    302600   302.17248     -218678.22      0             -218235.02     -978.04974    
    302700   298.05578     -218675.88      0             -218238.71     -1642.4562    
    302800   299.92702     -218678.13      0             -218238.22     -962.60605    
    302900   300.43386     -218677.65      0             -218237        -1118.3951    
    303000   301.49541     -218678.15      0             -218235.94     -1276.7605    
    303100   297.44655     -218671.21      0             -218234.95     -783.49736    
    303200   296.37349     -218667.81      0             -218233.12     -2799.9486    
    303300   303.13306     -218673.02      0             -218228.41     -2130.9113    
    303400   300.29478     -218670.65      0             -218230.2      -2661.341     
    303500   297.9714      -218675.08      0             -218238.04     -3133.7813    
    303600   297.75407     -218677.12      0             -218240.4      -2554.0044    
    303700   299.16289     -218676.26      0             -218237.47     -1419.3659    
    303800   300.20858     -218673.48      0             -218233.16     -827.86615    
    303900   300.41662     -218672.57      0             -218231.94     -1248.3365    
    304000   300.13403     -218673.02      0             -218232.81     -704.50627    
    304100   300.58932     -218676.18      0             -218235.3      -2047.7105    
    304200   297.83028     -218675.82      0             -218238.98     -1707.1755    
    304300   298.43869     -218679.39      0             -218241.66     -893.83306    
    304400   296.1808      -218676.72      0             -218242.31     -2206.2347    
    304500   298.44595     -218673.12      0             -218235.39     -2201.2651    
    304600   302.08268     -218673.85      0             -218230.78     -1763.7956    
    304700   298.89663     -218670.71      0             -218232.32     -1043.695     
    304800   299.5613      -218677.64      0             -218238.26     -1686.6014    
    304900   297.9608      -218679.7       0             -218242.68     -2412.4648    
    305000   298.82106     -218677.22      0             -218238.94     -1955.3307    
    305100   300.86235     -218671.03      0             -218229.75     -1499.7682    
    305200   302.85533     -218673.11      0             -218228.91     -1203.014     
    305300   297.43816     -218670.62      0             -218234.36     -1405.6828    
    305400   297.90028     -218676.37      0             -218239.43     -2192.8776    
    305500   297.66096     -218676.03      0             -218239.45     -1312.4433    
    305600   300.86192     -218675.49      0             -218234.21     -1857.5749    
    305700   305.61552     -218672.85      0             -218224.6      -2828.3516    
    305800   303.28774     -218669.89      0             -218225.06     -2674.3409    
    305900   304.06073     -218676.47      0             -218230.5      -1187.6568    
    306000   298.09905     -218673.84      0             -218236.61     -1314.3737    
    306100   299.49296     -218677.84      0             -218238.57     -1619.2688    
    306200   300.63558     -218676.6       0             -218235.65     -1324.3298    
    306300   301.62065     -218670.85      0             -218228.46     -2289.4749    
    306400   303.71067     -218672.19      0             -218226.73     -1813.0361    
    306500   296.08886     -218671.61      0             -218237.33     -1831.4422    
    306600   299.13077     -218678.68      0             -218239.94     -2219.5721    
    306700   300.63491     -218678.45      0             -218237.51     -2679.7803    
    306800   298.41743     -218670.43      0             -218232.74     -2112.901     
    306900   302.12066     -218672.48      0             -218229.35     -1181.6051    
    307000   299.03109     -218673.1       0             -218234.51     -97.545531    
    307100   298.37252     -218680.23      0             -218242.61     -1100.9152    
    307200   299.56326     -218680.33      0             -218240.95     -1346.5306    
    307300   299.71801     -218675.36      0             -218235.76     -2048.1087    
    307400   300.3293      -218672.67      0             -218232.17     -2194.0805    
    307500   300.36656     -218672.83      0             -218232.28     -1486.3637    
    307600   301.6458      -218676.79      0             -218234.37     -1304.6062    
    307700   297.38043     -218671.92      0             -218235.75     -2522.0534    
    307800   299.26432     -218674.49      0             -218235.55     -2024.2414    
    307900   303.49808     -218678.87      0             -218233.73     -2598.4569    
    308000   299.98163     -218670.79      0             -218230.8      -2102.0756    
    308100   298.96318     -218666.46      0             -218227.96     -2334.9047    
    308200   300.51086     -218671.87      0             -218231.1      -796.8265     
    308300   297.67684     -218674.83      0             -218238.22     -2095.6223    
    308400   298.21173     -218677.37      0             -218239.97     -2408.615     
    308500   295.50421     -218671.83      0             -218238.41     -1137.7448    
    308600   302.25807     -218673.61      0             -218230.29     -1020.1044    
    308700   299.30361     -218664.61      0             -218225.62     -2050.4696    
    308800   301.51218     -218671.31      0             -218229.08     -1311.7096    
    308900   299.26567     -218673.8       0             -218234.86     -2278.7783    
    309000   300.5542      -218678.52      0             -218237.69     -1704.6675    
    309100   299.99751     -218678.1       0             -218238.09     -1152.9153    
    309200   301.10877     -218676.74      0             -218235.1      -2100.737     
    309300   304.18431     -218673.72      0             -218227.57     -1807.5504    
    309400   302.71213     -218671.39      0             -218227.4      -1401.5014    
    309500   301.00768     -218675.92      0             -218234.43     -1481.3175    
    309600   297.57742     -218675.82      0             -218239.36     -1259.625     
    309700   298.01656     -218675.62      0             -218238.51     -1552.054     
    309800   298.19893     -218672.1       0             -218234.73     -1101.5087    
    309900   300.45814     -218673.24      0             -218232.55     -2185.728     
    310000   300.8797      -218670.64      0             -218229.34     -1909.1506    
    310100   302.51804     -218671.09      0             -218227.38     -2148.6519    
    310200   299.80584     -218673.65      0             -218233.92     -1706.9897    
    310300   299.95788     -218679.32      0             -218239.37     -2669.066     
    310400   298.99559     -218678.08      0             -218239.54     -2610.1671    
    310500   299.60373     -218674.76      0             -218235.33     -2391.4716    
    310600   303.3815      -218672.27      0             -218227.3      -2272.6896    
    310700   303.62086     -218672.83      0             -218227.5      -2501.571     
    310800   300.08204     -218671.98      0             -218231.85     -1637.5166    
    310900   297.36115     -218673.38      0             -218237.23     -2582.1952    
    311000   299.61601     -218677.83      0             -218238.38     -1186.3944    
    311100   300.66728     -218675.82      0             -218234.83     -1419.2712    
    311200   305.66266     -218675.03      0             -218226.71     -1950.796     
    311300   302.59999     -218667.9       0             -218224.07     -2311.6775    
    311400   303.5292      -218675.35      0             -218230.16     -2017.0374    
    311500   300.46647     -218674.18      0             -218233.49     -1542.8138    
    311600   299.76477     -218675.89      0             -218236.22     -1349.6674    
    311700   299.68299     -218678.91      0             -218239.36     -1708.695     
    311800   297.91367     -218676.42      0             -218239.47     -2557.0403    
    311900   299.1818      -218672.01      0             -218233.2      -2286.7887    
    312000   302.72929     -218671.42      0             -218227.4      -2699.9444    
    312100   304.19614     -218676.16      0             -218229.99     -2000.5346    
    312200   297.66308     -218673.11      0             -218236.53     -1139.5663    
    312300   298.1539      -218674.42      0             -218237.12     -933.87904    
    312400   301.18684     -218678.45      0             -218236.7       712.01581    
    312500   296.93535     -218672.82      0             -218237.3      -952.98236    
    312600   301.13518     -218676.36      0             -218234.68     -1207.2931    
    312700   299.23431     -218669.06      0             -218230.17     -1855.9756    
    312800   301.67125     -218671.81      0             -218229.35     -1091.4961    
    312900   302.87777     -218681.05      0             -218236.81     -2384.7953    
    313000   300.17258     -218679.28      0             -218239.02     -2027.0823    
    313100   297.02018     -218673.18      0             -218237.54     -2890.7251    
    313200   303.98257     -218680.01      0             -218234.16     -1444.2802    
    313300   298.82769     -218663.85      0             -218225.56     -1125.023     
    313400   303.9868      -218667.83      0             -218221.97     -2091.998     
    313500   301.83746     -218669.87      0             -218227.16     -1047.4798    
    313600   301.78449     -218675.37      0             -218232.74     -1016.8955    
    313700   299.00722     -218675.79      0             -218237.23     -981.3115     
    313800   296.58293     -218674.79      0             -218239.78     -907.58353    
    313900   297.44082     -218675.85      0             -218239.59     -826.64887    
    314000   296.92777     -218668.28      0             -218232.78     -1545.5057    
    314100   301.69299     -218670.53      0             -218228.03     -726.03061    
    314200   302.64805     -218675.39      0             -218231.49     -1266.249     
    314300   299.04848     -218676.15      0             -218237.53     -2102.3406    
    314400   302.07913     -218681.06      0             -218238        -2044.0171    
    314500   298.5205      -218674.25      0             -218236.4      -2684.6153    
    314600   301.06234     -218675.27      0             -218233.69     -2040.3038    
    314700   303.27744     -218672.24      0             -218227.42     -1687.3461    
    314800   304.24081     -218666.65      0             -218220.42     -2075.62      
    314900   299.10505     -218665.65      0             -218226.95     -1576.421     
    315000   300.74389     -218674.26      0             -218233.15     -878.92154    
    315100   301.04125     -218678.76      0             -218237.22     -998.70087    
    315200   299.35275     -218679.32      0             -218240.26     -1414.1339    
    315300   300.44472     -218680.74      0             -218240.07     -639.51205    
    315400   300.30019     -218673.27      0             -218232.81     -1131.214     
    315500   301.76406     -218672.08      0             -218229.48     -195.0764     
    315600   301.2162      -218673.91      0             -218232.12     -1099.5923    
    315700   301.32938     -218680.31      0             -218238.34     -2586.4886    
    315800   299.52154     -218679.07      0             -218239.76     -1505.6906    
    315900   298.43374     -218675.52      0             -218237.8      -1803.1508    
    316000   300.89529     -218674.95      0             -218233.63     -1616.5224    
    316100   305.19599     -218679.65      0             -218232.01     -1204.4051    
    316200   299.80483     -218676.38      0             -218236.65     -1905.6353    
    316300   298.29692     -218681.04      0             -218243.53     -2275.9793    
    316400   297.15238     -218678.89      0             -218243.05     -979.76       
    316500   298.57216     -218674.87      0             -218236.95     -957.04762    
    316600   301.96055     -218676.68      0             -218233.79     -1263.6065    
    316700   299.92537     -218676.06      0             -218236.16     -1232.6244    
    316800   299.00579     -218677.45      0             -218238.89     -1555.3719    
    316900   300.21238     -218680.61      0             -218240.28     -2028.1266    
    317000   299.65424     -218676.15      0             -218236.64     -1690.6105    
    317100   300.69664     -218671.96      0             -218230.93     -1815.3129    
    317200   303.44029     -218676.29      0             -218231.23     -644.2507     
    317300   299.24556     -218678.43      0             -218239.52     -1409.1609    
    317400   299.95713     -218683.13      0             -218243.18     -1569.2301    
    317500   297.62799     -218677.05      0             -218240.52     -1965.9224    
    317600   301.05902     -218676.48      0             -218234.91     -942.73769    
    317700   299.73895     -218673.03      0             -218233.4      -1931.9694    
    317800   298.3672      -218672.74      0             -218235.12     -435.44375    
    317900   300.02893     -218677.92      0             -218237.87     -1074.2828    
    318000   299.1223      -218685.31      0             -218246.58     -2090.3036    
    318100   296.64136     -218683.61      0             -218248.52     -1082.7205    
    318200   297.7702      -218678.53      0             -218241.79     -807.63168    
    318300   302.20538     -218680.98      0             -218237.74     -424.68923    
    318400   302.35078     -218678.71      0             -218235.25     -805.13043    
    318500   301.3198      -218674.81      0             -218232.86     -977.88665    
    318600   301.31854     -218673.22      0             -218231.27     -264.00534    
    318700   300.11534     -218673.3       0             -218233.12     -2170.0326    
    318800   298.34312     -218677.18      0             -218239.6      -2167.3566    
    318900   300.32317     -218682.04      0             -218241.55     -2187.7288    
    319000   299.72595     -218677.7       0             -218238.08     -2244.9568    
    319100   300.65968     -218670.74      0             -218229.75     -975.13668    
    319200   302.06602     -218672.93      0             -218229.88     -1477.0228    
    319300   298.61759     -218672.23      0             -218234.24     -1170.3043    
    319400   300.09094     -218677.13      0             -218236.98     -1187.2339    
    319500   294.7903      -218671.11      0             -218238.73     -1978.8741    
    319600   300.20382     -218678.63      0             -218238.32     -2216.5586    
    319700   300.79812     -218677.65      0             -218236.47     -1874.9741    
    319800   300.43062     -218676.43      0             -218235.79     -562.32645    
    319900   298.98779     -218674.66      0             -218236.13     -1805.2781    
    320000   301.09045     -218680.77      0             -218239.16     -1077.9032    
    320100   298.06637     -218680.13      0             -218242.96     -1147.6299    
    320200   298.2233      -218678.24      0             -218240.83     -2002.4858    
    320300   303.89172     -218678.97      0             -218233.25     -1976.0825    
    320400   302.98536     -218675.49      0             -218231.1      -2054.695     
    320500   301.25688     -218676.16      0             -218234.3      -1340.7813    
    320600   300.24806     -218677.77      0             -218237.4      -2880.9229    
    320700   300.30837     -218678.4       0             -218237.93     -1587.6161    
    320800   300.27184     -218678.49      0             -218238.07     -1561.4941    
    320900   299.23181     -218676.42      0             -218237.53     -1137.0755    
    321000   302.19132     -218676.45      0             -218233.22     -2148.9165    
    321100   303.18012     -218670.65      0             -218225.97     -1768.0354    
    321200   302.89067     -218671.73      0             -218227.48     -2184.6254    
    321300   300.25952     -218676.28      0             -218235.89     -1766.027     
    321400   299.64481     -218676.25      0             -218236.76     -1747.3417    
    321500   298.81901     -218675.09      0             -218236.81     -2683.5955    
    321600   299.98678     -218675.43      0             -218235.43     -2158.6119    
    321700   303.7723      -218678.61      0             -218233.06     -1382.9593    
    321800   297.60288     -218670.04      0             -218233.55     -1395.1408    
    321900   302.13993     -218681.59      0             -218238.44     -2244.3584    
    322000   299.46266     -218682.39      0             -218243.16     -593.68999    
    322100   296.97048     -218678.62      0             -218243.05     -1553.8545    
    322200   303.16091     -218677.92      0             -218233.27     -2374.0366    
    322300   302.72517     -218676.61      0             -218232.6      -1924.4921    
    322400   301.1334      -218677.81      0             -218236.13     -1437.1937    
    322500   297.41419     -218676.55      0             -218240.33     -1724.0403    
    322600   299.20001     -218681.2       0             -218242.36     -2396.0871    
    322700   299.1054      -218672.75      0             -218234.04     -2713.9239    
    322800   301.65928     -218671.38      0             -218228.93     -1722.7274    
    322900   301.20696     -218674.47      0             -218232.69     -2022.0103    
    323000   298.55341     -218676.57      0             -218238.67     -2876.3617    
    323100   298.81671     -218678.33      0             -218240.05     -1103.9123    
    323200   299.10856     -218676.67      0             -218237.97     -1864.7259    
    323300   303.08032     -218673.1       0             -218228.56     -1878.0641    
    323400   302.06416     -218669.61      0             -218226.56     -888.1843     
    323500   301.26375     -218673.18      0             -218231.31     -339.85612    
    323600   299.34507     -218675.53      0             -218236.48     -1822.2676    
    323700   301.26882     -218680.8       0             -218238.92     -1939.8722    
    323800   298.54234     -218676.42      0             -218238.55     -2067.735     
    323900   301.92122     -218673.68      0             -218230.85     -2027.5387    
    324000   302.68001     -218670.4       0             -218226.45     -1886.3929    
    324100   299.70047     -218671.35      0             -218231.77     -1283.4261    
    324200   299.2364      -218675.3       0             -218236.4      -2045.4056    
    324300   298.2681      -218675.02      0             -218237.54     -1859.8437    
    324400   298.87137     -218676.59      0             -218238.23     -703.50713    
    324500   299.50511     -218674.92      0             -218235.63     -1212.2179    
    324600   297.96858     -218666.46      0             -218229.42     -1692.768     
    324700   303.56287     -218671.91      0             -218226.67     -2399.7163    
    324800   305.14339     -218681.66      0             -218234.11     -1670.4313    
    324900   302.20674     -218681.34      0             -218238.08     -2358.8164    
    325000   297.62185     -218674.89      0             -218238.36     -1546.4852    
    325100   297.8599      -218674.43      0             -218237.56     -789.25353    
    325200   300.36086     -218675.14      0             -218234.6      -1492.8859    
    325300   301.46736     -218672.13      0             -218229.96     -578.76689    
    325400   301.73632     -218672.6       0             -218230.04     -1704.8544    
    325500   302.47523     -218681.89      0             -218238.24     -2290.6269    
    325600   296.40385     -218676.29      0             -218241.55     -1365.1405    
    325700   295.64692     -218673.38      0             -218239.75     -1809.2824    
    325800   302.67175     -218677.94      0             -218234        -1658.9184    
    325900   299.94782     -218670.89      0             -218230.95     -1179.0454    
    326000   301.57465     -218674.64      0             -218232.32     -2174.1387    
    326100   297.71995     -218679.1       0             -218242.43     -1705.8594    
    326200   294.80214     -218677.28      0             -218244.89     -2118.9796    
    326300   298.24236     -218676.6       0             -218239.16     -1762.0571    
    326400   301.28009     -218675.1       0             -218233.2      -1859.8906    
    326500   301.36974     -218675.2       0             -218233.17     -1058.815     
    326600   300.63135     -218678.68      0             -218237.74     -1526.1022    
    326700   296.15014     -218679.24      0             -218244.88     -1331.8024    
    326800   299.66974     -218682.26      0             -218242.73     -861.75676    
    326900   300.52095     -218673.69      0             -218232.91     -2558.4589    
    327000   300.76706     -218672.87      0             -218231.73     -2862.083     
    327100   300.13525     -218675.32      0             -218235.11     -1849.9264    
    327200   296.40734     -218674.1       0             -218239.35     -2065.311     
    327300   297.29479     -218676.4       0             -218240.36     -3042.6344    
    327400   298.23919     -218673.95      0             -218236.52     -2240.4969    
    327500   303.68793     -218674.59      0             -218229.16     -1665.0534    
    327600   301.90928     -218672.84      0             -218230.03     -804.74491    
    327700   299.43628     -218674.93      0             -218235.74     -1464.6582    
    327800   300.77808     -218678.45      0             -218237.29     -924.14649    
    327900   299.52704     -218675.34      0             -218236.02     -1835.2963    
    328000   298.252       -218673.29      0             -218235.84     -1582.8491    
    328100   302.34125     -218679.58      0             -218236.13     -2639.5399    
    328200   300.56667     -218679.39      0             -218238.54     -1747.432     
    328300   302.37085     -218683.13      0             -218239.64     -2223.1623    
    328400   300.79762     -218678.24      0             -218237.05     -1065.1905    
    328500   301.65229     -218673.65      0             -218231.21     -1864.4413    
    328600   301.19823     -218669.98      0             -218228.21     -711.09106    
    328700   298.23493     -218672.41      0             -218234.99     -566.08499    
    328800   298.61894     -218679.8       0             -218241.81     -716.98979    
    328900   298.4092      -218678.69      0             -218241.01     -1622.2615    
    329000   295.92743     -218670         0             -218235.95     -1811.4806    
    329100   302.28037     -218675.11      0             -218231.75     -1861.4519    
    329200   302.52748     -218677.29      0             -218233.56     -1484.4945    
    329300   297.5307      -218679.88      0             -218243.48     -1260.5109    
    329400   298.42035     -218682.25      0             -218244.55     -2019.102     
    329500   301.16314     -218680.5       0             -218238.78     -1546.4392    
    329600   300.68368     -218675.21      0             -218234.19     -1206.436     
    329700   302.57078     -218677.05      0             -218233.26     -2111.1734    
    329800   298.2824      -218675.39      0             -218237.9      -2164.1073    
    329900   299.59916     -218684.14      0             -218244.71     -3369.0631    
    330000   299.50821     -218682.44      0             -218243.14     -1784.5746    
    330100   299.58012     -218676.25      0             -218236.85     -1535.3894    
    330200   301.47097     -218677.66      0             -218235.49     -781.13171    
    330300   298.32602     -218673.47      0             -218235.91     -1697.2788    
    330400   299.67155     -218677.65      0             -218238.11     -497.60843    
    330500   298.99344     -218680.73      0             -218242.2      -237.95356    
    330600   298.69944     -218684.92      0             -218246.81     -1514.931     
    330700   299.20328     -218681.18      0             -218242.33     -1236.0777    
    330800   300.92055     -218675.45      0             -218234.09     -1376.0751    
    330900   304.90353     -218679.98      0             -218232.78     -1183.6869    
    331000   297.18414     -218673.03      0             -218237.15     -2019.3587    
    331100   297.62782     -218678.43      0             -218241.89     -1750.9645    
    331200   296.26986     -218675.36      0             -218240.82     -2712.51      
    331300   301.67094     -218673.14      0             -218230.67     -1948.367     
    331400   301.55741     -218671.3       0             -218229        -1234.5824    
    331500   301.00903     -218674.38      0             -218232.88     -2436.7332    
    331600   298.70152     -218676.37      0             -218238.26     -1501.5007    
    331700   295.45012     -218674.53      0             -218241.19     -925.46841    
    331800   301.09154     -218680.83      0             -218239.21     -1086.1158    
    331900   302.72962     -218673.56      0             -218229.55     -1159.9765    
    332000   300.31349     -218667.23      0             -218226.76     -1874.5213    
    332100   300.40985     -218672.29      0             -218231.68     -1926.2003    
    332200   304.21344     -218683.47      0             -218237.28     -1249.6696    
    332300   298.84616     -218678.23      0             -218239.91     -1384.2914    
    332400   297.42099     -218676.5       0             -218240.27     -1879.881     
    332500   300.13251     -218674.48      0             -218234.27     -2289.2107    
    332600   301.11246     -218669.76      0             -218228.12     -1637.6084    
    332700   298.88503     -218669.42      0             -218231.04     -1018.4606    
    332800   301.71501     -218680.08      0             -218237.55     -1653.6624    
    332900   297.63443     -218676.43      0             -218239.88     -2937.108     
    333000   300.86302     -218678.87      0             -218237.59     -2856.9435    
    333100   298.27372     -218673.56      0             -218236.08     -2451.4207    
    333200   301.67998     -218673.03      0             -218230.56     -1292.7392    
    333300   305.66301     -218674.49      0             -218226.16     -1702.8432    
    333400   303.12642     -218678.11      0             -218233.51     -1695.921     
    333500   302.16584     -218681.96      0             -218238.77     -2338.5361    
    333600   297.59589     -218676.7       0             -218240.21     -2338.3125    
    333700   302.39321     -218682.27      0             -218238.74     -1900.0288    
    333800   300.49062     -218675.31      0             -218234.58     -1164.3282    
    333900   303.73796     -218674.94      0             -218229.45     -2204.1978    
    334000   303.06707     -218675.62      0             -218231.11     -1893.2366    
    334100   299.68811     -218679.98      0             -218240.42     -1947.5988    
    334200   300.45713     -218683.21      0             -218242.52     -744.55025    
    334300   300.22038     -218680.58      0             -218240.24     -1917.8325    
    334400   299.5787      -218673.28      0             -218233.88     -1910.4262    
    334500   303.44219     -218676.22      0             -218231.15     -1682.3506    
    334600   300.67621     -218674.71      0             -218233.7      -1090.1211    
    334700   301.7192      -218678.24      0             -218235.71     -1906.1703    
    334800   302.07066     -218681.33      0             -218238.27     -2234.377     
    334900   300.08791     -218679.05      0             -218238.9      -2262.9014    
    335000   299.47014     -218678.77      0             -218239.53     -1681.0682    
    335100   299.6555      -218675.8       0             -218236.29     -2273.7836    
    335200   304.37618     -218677.8       0             -218231.37     -1694.7328    
    335300   301.5514      -218673.02      0             -218230.73     -1857.2042    
    335400   296.61401     -218674.8       0             -218239.75     -2121.8329    
    335500   296.62022     -218677.81      0             -218242.76     -1759.962     
    335600   297.75381     -218677.47      0             -218240.75     -1502.8219    
    335700   298.77858     -218674.69      0             -218236.47     -3006.836     
    335800   305.17837     -218677.49      0             -218229.88     -1911.6198    
    335900   301.61748     -218673.78      0             -218231.39     -2533.6737    
    336000   301.06023     -218676.73      0             -218235.16     -2526.4318    
    336100   302.34647     -218680.63      0             -218237.17     -718.29461    
    336200   300.19007     -218680.05      0             -218239.76     -1792.3549    
    336300   298.82187     -218680.77      0             -218242.48     -1264.4129    
    336400   295.39655     -218676.37      0             -218243.1      -1835.5002    
    336500   300.34694     -218677.42      0             -218236.9      -1639.4292    
    336600   304.32471     -218679.21      0             -218232.85     -1986.4304    
    336700   302.91759     -218678.65      0             -218234.35     -947.0733     
    336800   298.42782     -218679.75      0             -218242.04     -1228.0025    
    336900   299.88113     -218686.21      0             -218246.37     -1009.1892    
    337000   299.617       -218682.89      0             -218243.44     -1750.1073    
    337100   298.31766     -218676.6       0             -218239.05     -2154.0036    
    337200   300.80558     -218677.37      0             -218236.18     -2329.129     
    337300   300.61373     -218677.76      0             -218236.85     -1192.5938    
    337400   298.51778     -218676.73      0             -218238.89     -1065.5598    
    337500   297.34686     -218684.42      0             -218248.3      -1084.8294    
    337600   297.80851     -218687.43      0             -218250.63     -1310.3059    
    337700   296.47483     -218678.99      0             -218244.14     -1699.0411    
    337800   301.91842     -218682.39      0             -218239.57     -668.73058    
    337900   302.0826      -218679.51      0             -218236.44     -941.95397    
    338000   299.24509     -218674.76      0             -218235.85     -2412.5404    
    338100   298.33273     -218678.26      0             -218240.69     -1600.7186    
    338200   296.57152     -218682.72      0             -218247.73     -2165.2186    
    338300   298.78727     -218683.82      0             -218245.59     -2013.2908    
    338400   300.64602     -218680.78      0             -218239.82     -2720.7517    
    338500   301.7565      -218680.75      0             -218238.16     -1218.305     
    338600   297.9392      -218675.33      0             -218238.34     -1322.0853    
    338700   299.30772     -218680         0             -218241        -665.10821    
    338800   297.43961     -218683.69      0             -218247.43     -1744.592     
    338900   295.62624     -218685.9       0             -218252.3      -2632.9333    
    339000   296.50661     -218680.55      0             -218245.66     -1806.3637    
    339100   299.23945     -218676.63      0             -218237.73     -1722.2432    
    339200   302.56671     -218679.9       0             -218236.12     -1739.4604    
    339300   299.45561     -218676.33      0             -218237.12     -613.11025    
    339400   299.63259     -218681.91      0             -218242.43     -46.677553    
    339500   296.70399     -218682.45      0             -218247.27     -717.70563    
    339600   296.04585     -218680.39      0             -218246.18     -765.62132    
    339700   298.7822      -218673.48      0             -218235.25     -1055.567     
    339800   302.36121     -218677.74      0             -218234.27     -1867.0105    
    339900   301.42386     -218680.67      0             -218238.57     -1290.1866    
    340000   299.67425     -218682.82      0             -218243.29     -1962.1206    
    340100   298.87735     -218682.49      0             -218244.12     -2622.716     
    340200   302.20217     -218680.2       0             -218236.95     -1235.0902    
    340300   301.48551     -218673         0             -218230.81     -1927.4018    
    340400   301.59353     -218676.78      0             -218234.42     -1707.7865    
    340500   302.00888     -218683.52      0             -218240.56     -1101.8676    
    340600   295.93433     -218676.98      0             -218242.93     -1136.5769    
    340700   300.75451     -218681.69      0             -218240.57     -1682.9317    
    340800   303.46954     -218683.68      0             -218238.58     -2258.365     
    340900   300.61795     -218670.97      0             -218230.05     -694.15377    
    341000   302.82701     -218671.63      0             -218227.46     -1163.0091    
    341100   302.20045     -218677.7       0             -218234.46      98.421787    
    341200   298.72723     -218677.08      0             -218238.94     -1975.5656    
    341300   296.42519     -218676.57      0             -218241.79     -1554.1049    
    341400   299.21626     -218682.08      0             -218243.22     -1204.9981    
    341500   299.07715     -218679.16      0             -218240.5      -2177.1348    
    341600   302.02732     -218676.17      0             -218233.18     -2441.2634    
    341700   302.06125     -218676.5       0             -218233.47     -2066.2697    
    341800   298.46319     -218678.46      0             -218240.7      -2272.8939    
    341900   296.86236     -218679.52      0             -218244.11     -2327.3913    
    342000   298.90688     -218680.45      0             -218242.04     -2693.4794    
    342100   298.93732     -218676.94      0             -218238.49     -1312.1869    
    342200   299.42643     -218676.05      0             -218236.87     -701.31726    
    342300   296.58049     -218676.61      0             -218241.61     -1727.0128    
    342400   293.50218     -218680.02      0             -218249.53     -2287.5578    
    342500   300.69244     -218686.97      0             -218245.94     -2008.8582    
    342600   298.10276     -218677.33      0             -218240.1      -2122.2648    
    342700   300.06184     -218677.21      0             -218237.1      -1789.5057    
    342800   299.52469     -218676.14      0             -218236.83     -2422.275     
    342900   299.89023     -218680.51      0             -218240.66     -1917.9369    
    343000   299.02997     -218685.97      0             -218247.37     -1967.9033    
    343100   292.97631     -218686.36      0             -218256.65     -1809.2056    
    343200   298.11953     -218689.5       0             -218252.24     -2431.6858    
    343300   300.79411     -218687.77      0             -218246.59     -1304.7321    
    343400   298.73134     -218679.46      0             -218241.31     -2113.7327    
    343500   303.77587     -218682.94      0             -218237.39     -1302.1164    
    343600   304.28703     -218683.35      0             -218237.05     -802.40142    
    343700   299.66384     -218682.88      0             -218243.36     -2258.4868    
    343800   298.22299     -218686.44      0             -218249.04     -1692.9987    
    343900   299.28585     -218686.2       0             -218247.23     -1165.2187    
    344000   300.77528     -218682.34      0             -218241.19     -1371.9437    
    344100   300.50842     -218679.57      0             -218238.81     -1915.2891    
    344200   300.51718     -218680.3       0             -218239.52     -1629.8239    
    344300   298.16156     -218679.79      0             -218242.47     -2240.4601    
    344400   300.06468     -218686.87      0             -218246.76     -1793.9781    
    344500   294.49474     -218684.8       0             -218252.86     -1678.6726    
    344600   295.78266     -218686.53      0             -218252.71     -2087.0821    
    344700   298.58511     -218680.4       0             -218242.46     -2190.7604    
    344800   300.89395     -218680.35      0             -218239.03     -1242.7422    
    344900   303.90061     -218683.62      0             -218237.88     -1612.2526    
    345000   303.57651     -218684.94      0             -218239.68     -2562.5491    
    345100   297.59913     -218682.55      0             -218246.05     -2585.1874    
    345200   296.53786     -218684.4       0             -218249.46     -1615.3625    
    345300   299.43732     -218685.14      0             -218245.95     -1757.7643    
    345400   302.53267     -218680.84      0             -218237.11     -1887.832     
    345500   301.11858     -218678.37      0             -218236.72     -1231.421     
    345600   298.34634     -218679.37      0             -218241.78     -2197.4264    
    345700   294.26172     -218677.89      0             -218246.3      -1153.2363    
    345800   297.26931     -218681.52      0             -218245.51     -2090.0601    
    345900   301.96989     -218681.6       0             -218238.69     -2435.9046    
    346000   303.14298     -218675.85      0             -218231.23     -2271.5769    
    346100   303.01611     -218678.94      0             -218234.51     -3065.2279    
    346200   297.16068     -218676.31      0             -218240.46     -1110.0815    
    346300   297.52707     -218681.07      0             -218244.68     -1720.5227    
    346400   300.81405     -218686.57      0             -218245.36     -906.71094    
    346500   299.99971     -218680.41      0             -218240.39     -1264.4577    
    346600   301.3799      -218674.94      0             -218232.9      -1585.6027    
    346700   300.90022     -218676.89      0             -218235.56     -1431.0039    
    346800   299.13913     -218679.47      0             -218240.72     -2266.5818    
    346900   297.78325     -218680.78      0             -218244.01     -1240.5612    
    347000   300.73761     -218684.2       0             -218243.1      -1090.4183    
    347100   299.48396     -218681.39      0             -218242.13     -1867.0603    
    347200   299.48622     -218679.17      0             -218239.91     -1596.4265    
    347300   300.1518      -218672.01      0             -218231.78     -1605.0321    
    347400   300.39385     -218670.72      0             -218230.13     -1583.3482    
    347500   300.64428     -218678.4       0             -218237.44     -2038.5096    
    347600   303.89        -218686.38      0             -218240.66     -2851.6536    
    347700   297.90575     -218680.8       0             -218243.85     -3004.8205    
    347800   297.48822     -218679.47      0             -218243.14     -1744.8728    
    347900   304.21345     -218683.88      0             -218237.69     -2058.7541    
    348000   303.52515     -218677.13      0             -218231.94     -2102.0648    
    348100   302.47707     -218678.34      0             -218234.69     -576.29092    
    348200   299.72485     -218683.7       0             -218244.09     -1093.5084    
    348300   296.98531     -218680.52      0             -218244.93     -994.57474    
    348400   303.39592     -218687.11      0             -218242.11     -1514.9126    
    348500   300.51554     -218679.73      0             -218238.96     -1140.4872    
    348600   301.68601     -218677.77      0             -218235.29     -1119.1081    
    348700   302.27751     -218678.38      0             -218235.02     -1547.034     
    348800   296.57557     -218678.46      0             -218243.47     -1890.0633    
    348900   298.38914     -218683.07      0             -218245.42     -2076.6456    
    349000   302.06855     -218686.2       0             -218243.15     -1096.7397    
    349100   303.72384     -218681.54      0             -218236.06     -1801.7206    
    349200   304.33611     -218678.62      0             -218232.25     -1534.6423    
    349300   304.28886     -218681.97      0             -218235.66     -2302.5222    
    349400   301.19695     -218680.48      0             -218238.71     -1790.9859    
    349500   298.63796     -218678.91      0             -218240.89     -1320.556     
    349600   298.87343     -218682.7       0             -218244.34     -2430.512     
    349700   298.08814     -218685.08      0             -218247.87     -1337.2757    
    349800   299.96829     -218687.35      0             -218247.39     -1661.6526    
    349900   300.61793     -218679.89      0             -218238.97     -1627.5264    
    350000   305.54891     -218683.93      0             -218235.77     -1900.4757    
    350100   304.50114     -218684.23      0             -218237.62     -1892.3171    
    350200   297.98729     -218681.85      0             -218244.78     -2590.2169    
    350300   299.85161     -218687.05      0             -218247.26     -2454.2451    
    350400   299.36878     -218685.09      0             -218246        -1042.3212    
    350500   301.27559     -218684.98      0             -218243.09     -1197.5532    
    350600   301.53834     -218683.07      0             -218240.8      -1000.9238    
    350700   304.81775     -218685.4       0             -218238.32     -1835.0756    
    350800   301.10906     -218676.71      0             -218235.07     -902.32496    
    350900   302.54193     -218678.84      0             -218235.1      -2240.5241    
    351000   298.69028     -218679.17      0             -218241.07     -2813.2902    
    351100   297.84915     -218682.92      0             -218246.06     -2237.2907    
    351200   298.9396      -218684.75      0             -218246.29     -1642.0262    
    351300   299.16866     -218679.34      0             -218240.55     -976.36746    
    351400   307.02611     -218683.54      0             -218233.22     -971.89101    
    351500   299.40461     -218673.47      0             -218234.33     -1981.9088    
    351600   299.5621      -218677.65      0             -218238.28     -2110.2791    
    351700   296.75783     -218678.3       0             -218243.04     -1976.1458    
    351800   298.17987     -218682.42      0             -218245.08     -1904.753     
    351900   298.87183     -218681.48      0             -218243.12     -1970.8874    
    352000   304.89458     -218680.75      0             -218233.56     -2071.9948    
    352100   302.19116     -218676.18      0             -218232.95     -1049.4094    
    352200   301.86242     -218680.62      0             -218237.88     -2374.8797    
    352300   297.1541      -218677.75      0             -218241.91     -1435.7121    
    352400   300.02772     -218682.6       0             -218242.55     -1703.1866    
    352500   301.24761     -218684.55      0             -218242.7      -1766.8859    
    352600   300.82571     -218680.58      0             -218239.35     -957.13193    
    352700   300.44856     -218676.78      0             -218236.1      -767.03691    
    352800   298.49594     -218673.58      0             -218235.77     -1377.8076    
    352900   298.25518     -218679.34      0             -218241.88     -767.59988    
    353000   296.65707     -218682.02      0             -218246.91     -952.31733    
    353100   300.63822     -218686.45      0             -218245.5      -1699.5354    
    353200   300.51314     -218682.88      0             -218242.11     -1337.2296    
    353300   300.73046     -218676.99      0             -218235.9      -2744.4299    
    353400   304.14037     -218674.24      0             -218228.15     -2589.6026    
    353500   303.4522      -218678.38      0             -218233.31     -1904.8147    
    353600   301.54501     -218681.62      0             -218239.34     -2549.6498    
    353700   297.53633     -218679.44      0             -218243.04     -1525.4114    
    353800   298.87037     -218682.57      0             -218244.21     -1397.5708    
    353900   300.38418     -218684.76      0             -218244.18     -1835.2941    
    354000   299.28178     -218679.49      0             -218240.53     -324.5765     
    354100   303.56379     -218680.1       0             -218234.86     -974.24038    
    354200   299.01443     -218675.84      0             -218237.27     -3106.4095    
    354300   298.91631     -218682.81      0             -218244.38     -2285.2838    
    354400   300.08464     -218686.34      0             -218246.2      -581.45695    
    354500   300.80609     -218684.78      0             -218243.58     -524.31426    
    354600   299.63442     -218680.71      0             -218241.23     -1171.4796    
    354700   302.09746     -218681.61      0             -218238.52     -1024.1881    
    354800   305.13355     -218678.74      0             -218231.19     -2095.2078    
    354900   304.11109     -218676.73      0             -218230.68     -1604.5444    
    355000   302.63116     -218682.95      0             -218239.08     -2357.6825    
    355100   298.80676     -218680.91      0             -218242.64     -1906.4193    
    355200   298.39409     -218682.15      0             -218244.49     -2600.9329    
    355300   299.03059     -218680.93      0             -218242.33     -3070.0867    
    355400   305.96481     -218684.41      0             -218235.65     -1928.0501    
    355500   304.74006     -218679.31      0             -218232.34     -1697.0301    
    355600   299.6784      -218678.99      0             -218239.45     -1314.2231    
    355700   298.68007     -218683.26      0             -218245.19     -1273.7801    
    355800   300.14449     -218684.99      0             -218244.77     -2371.3368    
    355900   299.33535     -218680.68      0             -218241.64     -1847.7092    
    356000   298.46174     -218673.5       0             -218235.74     -1770.4485    
    356100   303.65755     -218679.38      0             -218234        -1121.5063    
    356200   300.6966      -218683.93      0             -218242.9      -1542.7036    
    356300   297.58834     -218684         0             -218247.53     -1446.9896    
    356400   296.07812     -218680.34      0             -218246.08     -2017.7592    
    356500   299.68315     -218679.24      0             -218239.69     -2646.8721    
    356600   300.50707     -218676.55      0             -218235.79     -2430.6371    
    356700   303.82388     -218681.96      0             -218236.34     -2135.5914    
    356800   300.88599     -218683.06      0             -218241.74     -1651.1542    
    356900   296.27616     -218679.68      0             -218245.13     -1907.0667    
    357000   300.14218     -218683.94      0             -218243.71     -2211.775     
    357100   298.72575     -218679.01      0             -218240.87     -1105.2906    
    357200   299.36712     -218677.31      0             -218238.23     -1515.6113    
    357300   301.25291     -218680.62      0             -218238.77     -1285.6423    
    357400   302.75417     -218688.95      0             -218244.89     -461.43331    
    357500   297.3617      -218685.9       0             -218249.76     -906.65651    
    357600   298.32479     -218683.76      0             -218246.21     -1400.0534    
    357700   302.46106     -218683.54      0             -218239.92     -1323.007     
    357800   303.03237     -218684.2       0             -218239.73     -1977.756     
    357900   297.9975      -218677.96      0             -218240.89     -1963.9971    
    358000   298.01007     -218678.14      0             -218241.04     -1433.5776    
    358100   300.20147     -218684.77      0             -218244.46     -297.93513    
    358200   297.26767     -218685.17      0             -218249.16     -238.19717    
    358300   297.94897     -218685.44      0             -218248.44     -1572.0611    
    358400   299.68405     -218679.17      0             -218239.62     -1453.9066    
    358500   302.83398     -218681.26      0             -218237.09     -2211.2885    
    358600   303.82255     -218682.99      0             -218237.37     -1445.5835    
    358700   297.56221     -218680.84      0             -218244.4      -2262.4004    
    358800   298.12506     -218685.04      0             -218247.78     -778.69947    
    358900   300.12762     -218685.69      0             -218245.49     -1436.9762    
    359000   298.43304     -218680.62      0             -218242.91     -1998.1282    
    359100   301.72959     -218681.05      0             -218238.5      -982.03615    
    359200   302.17729     -218680.33      0             -218237.13     -1814.6543    
    359300   300.32811     -218678.91      0             -218238.41     -2583.0966    
    359400   302.89275     -218684.78      0             -218240.52     -1956.4407    
    359500   298.73889     -218680.42      0             -218242.25     -1584.6002    
    359600   300.23625     -218683.97      0             -218243.61     -1910.0362    
    359700   298.87734     -218684.01      0             -218245.64     -1751.0602    
    359800   300.31791     -218685.3       0             -218244.82     -758.3128     
    359900   300.30008     -218680.44      0             -218239.99     -1479.6391    
    360000   302.57822     -218679.18      0             -218235.39     -1322.6318    
    360100   302.83159     -218678.61      0             -218234.44     -845.23095    
    360200   299.3983      -218682.56      0             -218243.43     -1763.8452    
    360300   297.20111     -218683.48      0             -218247.57     -1842.6789    
    360400   301.03387     -218686.67      0             -218245.14     -1506.7762    
    360500   300.90657     -218680.93      0             -218239.58     -1765.0309    
    360600   302.36573     -218680.09      0             -218236.61     -1433.2419    
    360700   300.43193     -218679.72      0             -218239.08     -926.03262    
    360800   297.00957     -218685.56      0             -218249.93     -1509.1577    
    360900   297.31535     -218683.67      0             -218247.6      -1604.7323    
    361000   298.50886     -218678.68      0             -218240.85     -1143.6056    
    361100   300.22542     -218677.8       0             -218237.45     -1834.3331    
    361200   302.44061     -218682.03      0             -218238.44     -1261.6828    
    361300   298.6877      -218683.55      0             -218245.46     -754.663      
    361400   297.92395     -218687.25      0             -218250.28     -1876.7264    
    361500   298.46399     -218684.97      0             -218247.21     -862.16297    
    361600   298.47717     -218681.45      0             -218243.67     -936.56184    
    361700   298.99034     -218680.29      0             -218241.75     -20.032128    
    361800   300.44363     -218681.08      0             -218240.42     -1377.3663    
    361900   303.00885     -218682.57      0             -218238.14     -1048.4501    
    362000   300.77182     -218677.27      0             -218236.12     -375.95161    
    362100   299.25738     -218676.08      0             -218237.16     -2051.6917    
    362200   299.35019     -218682.03      0             -218242.97     -2203.2566    
    362300   297.28463     -218683.82      0             -218247.79     -2021.6173    
    362400   295.95481     -218680.86      0             -218246.78     -1848.8192    
    362500   303.18193     -218682.12      0             -218237.44     -2022.2895    
    362600   303.71749     -218681.29      0             -218235.82     -2011.7943    
    362700   296.98678     -218675.07      0             -218239.47     -1335.8048    
    362800   299.70282     -218684.27      0             -218244.69     -1661.4378    
    362900   297.10012     -218683.6       0             -218247.84     -709.13853    
    363000   297.88768     -218681.26      0             -218244.34     -1061.9834    
    363100   300.89312     -218676.46      0             -218235.14     -2254.8632    
    363200   305.34542     -218683.26      0             -218235.41     -1593.9864    
    363300   299.41107     -218679.4       0             -218240.25     -1794.6411    
    363400   297.44906     -218680.37      0             -218244.09     -897.17259    
    363500   296.16203     -218680.31      0             -218245.93     -2085.0584    
    363600   301.30556     -218686.06      0             -218244.13     -1437.0674    
    363700   299.783       -218676.28      0             -218236.58     -1804.9758    
    363800   299.30383     -218673.01      0             -218234.02     -2210.3191    
    363900   301.34147     -218680.13      0             -218238.14     -1787.5195    
    364000   299.98399     -218684.4       0             -218244.41     -941.14366    
    364100   300.02926     -218684.82      0             -218244.76     -1504.1168    
    364200   298.62348     -218680.68      0             -218242.68     -1835.9956    
    364300   300.83975     -218679.62      0             -218238.37      10.684589    
    364400   299.57636     -218669.62      0             -218230.23     -1833.1085    
    364500   302.48793     -218671.77      0             -218228.11     -263.94468    
    364600   301.9589      -218679.24      0             -218236.36     -910.31539    
    364700   300.63311     -218681.04      0             -218240.1      -665.22569    
    364800   300.73101     -218684.5       0             -218243.42     -1216.129     
    364900   296.3515      -218680.46      0             -218245.79     -1034.8325    
    365000   299.66907     -218684.76      0             -218245.23     -1288.0301    
    365100   300.5211      -218679.28      0             -218238.5      -993.9975     
    365200   304.26755     -218680.16      0             -218233.88     -1260.5012    
    365300   298.94821     -218675.92      0             -218237.45     -1349.5858    
    365400   299.54671     -218682.74      0             -218243.39     -718.96408    
    365500   299.96606     -218684.58      0             -218244.62     -1038.7546    
    365600   298.37676     -218681.86      0             -218244.22     -493.35238    
    365700   300.53118     -218682.16      0             -218241.37     -1010.4282    
    365800   299.39699     -218677.36      0             -218238.23     -1171.8891    
    365900   304.45262     -218678.88      0             -218232.34     -1324.4381    
    366000   303.90457     -218677.39      0             -218231.65     -1699.6616    
    366100   298.60524     -218678.98      0             -218241.01     -1726.6226    
    366200   300.89258     -218684.43      0             -218243.1      -1667.929     
    366300   302.70102     -218688.9       0             -218244.93     -1301.1907    
    366400   299.34176     -218684.19      0             -218245.14     -2271.9515    
    366500   301.10824     -218681.28      0             -218239.64     -1855.2005    
    366600   302.01257     -218677.81      0             -218234.85     -1836.6931    
    366700   298.00292     -218673.9       0             -218236.81     -1376.112     
    366800   300.26928     -218686.98      0             -218246.57     -1735.5535    
    366900   298.94249     -218685.6       0             -218247.14     -1316.8575    
    367000   302.25519     -218686.24      0             -218242.92     -1153.813     
    367100   299.27188     -218677.99      0             -218239.05     -1179.2874    
    367200   303.0129      -218680.88      0             -218236.45     -1592.0499    
    367300   301.00291     -218682.12      0             -218240.64     -1375.9451    
    367400   297.86536     -218685.75      0             -218248.87     -1526.0313    
    367500   297.0803      -218684         0             -218248.26     -1337.5221    
    367600   299.5928      -218681.43      0             -218242.02     -1861.9202    
    367700   304.82477     -218684.82      0             -218237.73     -1456.7677    
    367800   301.84856     -218682         0             -218239.27     -825.39214    
    367900   298.45799     -218680.42      0             -218242.67     -1699.161     
    368000   300.90305     -218685.07      0             -218243.73     -1816.9265    
    368059   297.40607     -218680.06      0             -218243.85     -2492.5393    
Loop time of 3275.54 on 8 procs for 345000 steps with 11348 atoms

Performance: 9.100 ns/day, 2.637 hours/ns, 105.326 timesteps/s
96.6% CPU use with 8 MPI tasks x 1 OpenMP threads

MPI task timing breakdown:
Section |  min time  |  avg time  |  max time  |%varavg| %total
---------------------------------------------------------------
Pair    | 1036.3     | 1079.7     | 1111.4     |  75.1 | 32.96
Kspace  | 1885.6     | 1915.1     | 1959.2     |  55.1 | 58.47
Neigh   | 125.3      | 129.33     | 132.11     |  16.8 |  3.95
Comm    | 99.62      | 102.62     | 106.02     |  21.6 |  3.13
Output  | 5.0172     | 5.2256     | 5.2577     |   3.4 |  0.16
Modify  | 32.001     | 32.245     | 32.831     |   4.6 |  0.98
Other   |            | 11.34      |            |       |  0.35

Nlocal:         1418.5 ave        1437 max        1398 min
Histogram: 2 0 0 0 1 2 1 0 1 1
Nghost:           3862 ave        3887 max        3829 min
Histogram: 1 0 1 1 1 0 0 2 1 1
Neighs:         104632 ave      109662 max      101788 min
Histogram: 2 0 1 3 0 1 0 0 0 1

Total # of neighbors = 837060
Ave neighs/atom = 73.762778
Neighbor list builds = 50898
Dangerous builds = 0

undump              1
unfix               1
unfix               RDF
uncompute           myRDF

print "Temp = ${Tmp}"
Temp = 300

variable Tmp delete
next a
jump SELF loop_start
print "loop body"
loop body
variable Tmp equal (${a}-1)*5+300
variable Tmp equal (2-1)*5+300

reset_timestep 0

velocity	all create 0.00001 87287

pair_style buck/coul/long 8.0
pair_coeff 1 1 0.0        1.0      0.0
pair_coeff 2 2 2029.2204  0.343645 192.58000
pair_coeff 3 3 0.0        1.0      0.0
pair_coeff 4 4 0.0        1.0      0.0
pair_coeff 1 2 41051.9380 0.151160 0.0000
pair_coeff 1 3 0.0        1.0      0.0
pair_coeff 1 4 0.0        1.0      0.0
pair_coeff 2 3 26655.4720 0.181968 86.5860
pair_coeff 2 4 17943.3840 0.226627 127.6500
pair_coeff 3 4 0.0        1.0      0.0
kspace_style pppm 1.0e-4

neighbor	0.3 bin
neigh_modify	every 1 delay 0 check yes

log log.lammps00_${Tmp}
log log.lammps00_305
