
timestep 0.001

min_style cg
minimize 1.0e-4 1.0e-6 1000 10000
PPPM initialization ...
WARNING: System is not charge neutral, net charge = -578.4 (src/kspace.cpp:327)
  using 12-bit tables for long-range coulomb (src/kspace.cpp:342)
  G vector (1/distance) = 0.36882357
  grid = 54 48 64
  stencil order = 5
  estimated absolute RMS force accuracy = 0.001787825
  estimated relative force accuracy = 0.00012415757
  using double precision FFTW3
  3d grid and FFT values/proc = 34336 20736
Generated 0 of 6 mixed pair_coeff terms from geometric mixing rule
Neighbor list info ...
  update every 1 steps, delay 0 steps, check yes
  max neighbors/atom: 2000, page size: 100000
  master list distance cutoff = 8.3
  ghost atom cutoff = 8.3
  binsize = 4.15, bins = 14 12 18
  1 neighbor lists, perpetual/occasional/extra = 1 0 0
  (1) pair buck/coul/long, perpetual
      attributes: half, newton on
      pair build: half/bin/atomonly/newton
      stencil: half/bin/3d
      bin: standard
Per MPI rank memory allocation (min/avg/max) = 8.305 | 8.306 | 8.307 Mbytes
   Step          Temp          E_pair         E_mol          TotEng         Press     
         0   1e-05         -218716.87      0             -218716.87     -2778.41      
         5   1e-05         -219087.31      0             -219087.31     -3898.7049    
Loop time of 0.121061 on 8 procs for 5 steps with 11348 atoms

99.0% CPU use with 8 MPI tasks x 1 OpenMP threads

Minimization stats:
  Stopping criterion = energy tolerance
  Energy initial, next-to-last, final = 
     -218716.872709262  -219067.315224871  -219087.309198664
  Force two-norm initial, final = 186.35443 33.688286
  Force max component initial, final = 5.7329533 1.9774281
  Final line search alpha, max atom move = 0.058498719 0.11567701
  Iterations, force evaluations = 5 10

MPI task timing breakdown:
Section |  min time  |  avg time  |  max time  |%varavg| %total
---------------------------------------------------------------
Pair    | 0.041215   | 0.047289   | 0.054608   |   2.0 | 39.06
Kspace  | 0.058358   | 0.065604   | 0.072407   |   1.8 | 54.19
Neigh   | 0.0043983  | 0.0050944  | 0.0056488  |   0.5 |  4.21
Comm    | 0.0019811  | 0.0020306  | 0.0020886  |   0.1 |  1.68
Output  | 0          | 0          | 0          |   0.0 |  0.00
Modify  | 0          | 0          | 0          |   0.0 |  0.00
Other   |            | 0.001043   |            |       |  0.86

Nlocal:         1418.5 ave        1439 max        1394 min
Histogram: 1 0 1 0 2 0 1 1 1 1
Nghost:        3877.75 ave        3906 max        3837 min
Histogram: 1 0 0 1 0 2 0 3 0 1
Neighs:         105026 ave      110038 max      102015 min
Histogram: 1 1 0 3 2 0 0 0 0 1

Total # of neighbors = 840205
Ave neighs/atom = 74.039919
Neighbor list builds = 2
Dangerous builds = 0

fix                 1 all npt temp ${Tmp} ${Tmp} 0.1 iso 1.0 1.0 1.0
fix                 1 all npt temp 310 ${Tmp} 0.1 iso 1.0 1.0 1.0
fix                 1 all npt temp 310 310 0.1 iso 1.0 1.0 1.0
dump                1 all atom 100 dump00_${Tmp}.adp
dump                1 all atom 100 dump00_310.adp
thermo              100
run                 23000
PPPM initialization ...
  using 12-bit tables for long-range coulomb (src/kspace.cpp:342)
  G vector (1/distance) = 0.36882357
  grid = 54 48 64
  stencil order = 5
  estimated absolute RMS force accuracy = 0.001787825
  estimated relative force accuracy = 0.00012415757
  using double precision FFTW3
  3d grid and FFT values/proc = 34336 20736
Generated 0 of 6 mixed pair_coeff terms from geometric mixing rule
Per MPI rank memory allocation (min/avg/max) = 7.18 | 7.181 | 7.182 Mbytes
   Step          Temp          E_pair         E_mol          TotEng         Press          Volume    
         5   1e-05         -219087.31      0             -219087.31     -3898.7049      191311.55    
       100   34.299085     -219133.78      0             -219083.47      1152.2805      190133.62    
       200   36.170415     -219122.5       0             -219069.44     -266.45659      190235.39    
       300   41.70063      -219114.23      0             -219053.07      77.098893      190039.53    
       400   48.429886     -219103.42      0             -219032.38      33.109607      189916.65    
       500   58.540795     -219092.04      0             -219006.18      263.44112      190046.2     
       600   67.383789     -219073.24      0             -218974.41      181.33467      190107.8     
       700   81.086221     -219055.88      0             -218936.95     -226.79483      190055.75    
       800   96.628733     -219033.98      0             -218892.25     -19.883928      190086.01    
       900   115.35594     -219008.15      0             -218838.96     -675.47742      190105.82    
      1000   134.86913     -218976.28      0             -218778.47      624.90547      189660.24    
      1100   161.32077     -218942.13      0             -218705.52     -311.78854      190121.54    
      1200   184.15097     -218896.26      0             -218626.16      627.81889      190029.61    
      1300   216.96491     -218856.14      0             -218537.92     -966.01038      190536.31    
      1400   243.68372     -218804.56      0             -218447.15     -10.983077      190540.84    
      1500   273.20648     -218758.34      0             -218357.63      413.40201      190469.66    
      1600   296.5053      -218709.85      0             -218274.97     -1209.8235      191278.26    
      1700   316.64507     -218680.67      0             -218216.24      793.30568      191213.31    
      1800   329.72493     -218680.26      0             -218196.64      444.02996      191262.82    
      1900   320.2165      -218694.63      0             -218224.96     -413.78198      191554.76    
      2000   307.8721      -218719.14      0             -218267.58     -110.77056      191269.25    
      2100   295.66287     -218724.11      0             -218290.45      425.55733      191258.46    
      2200   298.62032     -218717.22      0             -218279.23     -510.73805      191214.51    
      2300   312.29891     -218704.29      0             -218246.23     -838.25565      190908.12    
      2400   320.04018     -218693.1       0             -218223.69      283.16486      190439.5     
      2500   317.99248     -218692.39      0             -218225.98      11.900285      190698.48    
      2600   313.19358     -218708.68      0             -218249.32     -1170.6442      190716.71    
      2700   303.86452     -218719.46      0             -218273.78      472.65242      190120.47    
      2800   301.81345     -218721.86      0             -218279.18      824.5939       190235.83    
      2900   306.35554     -218713.34      0             -218264        -328.10799      190493.46    
      3000   311.99096     -218699.62      0             -218242.02      579.78475      190334.45    
      3100   318.43806     -218696.47      0             -218229.41     -111.60384      190504.05    
      3200   313.37977     -218699.08      0             -218239.45     -338.69984      190691.64    
      3300   304.25173     -218707.05      0             -218260.8      -341.50563      190951.14    
      3400   302.29896     -218718.8       0             -218275.41      665.9339       191047.25    
      3500   303.22077     -218714.85      0             -218270.11     -713.70174      191258.92    
      3600   308.96562     -218704.5       0             -218251.34     -134.42658      191217.53    
      3700   318.38545     -218699.31      0             -218232.33      54.72622       191552.89    
      3800   316.10955     -218696.9       0             -218233.25      473.77143      191395.34    
      3900   312.44659     -218707.61      0             -218249.34     -211.55353      191402.18    
      4000   302.12311     -218711.16      0             -218268.04     -122.47724      191344.36    
      4100   304.09057     -218718.44      0             -218272.43     -1152.4675      191264.86    
      4200   308.03915     -218713.44      0             -218261.63      804.98252      190900.94    
      4300   317.51986     -218710.18      0             -218244.47      558.99166      190611.01    
      4400   319.3184      -218703.97      0             -218235.62     -1220.9178      190911.97    
      4500   313.96359     -218707.02      0             -218246.52      329.42956      190729.39    
      4600   305.94415     -218713.39      0             -218264.66      184.18084      190787.32    
      4700   304.82625     -218720.11      0             -218273.02     -442.87065      190783.79    
      4800   307.20332     -218716.59      0             -218266.01      746.05942      190612.62    
      4900   311.31256     -218705.62      0             -218249.01      638.87133      190853.29    
      5000   315.43969     -218700.01      0             -218237.35     -896.06745      191234.83    
      5100   313.86288     -218705.05      0             -218244.71      315.84511      190708.11    
      5200   309.8872      -218714.85      0             -218260.34     -531.65378      190756.47    
      5300   302.29401     -218715.21      0             -218271.84      51.275756      190941.28    
      5400   305.5698      -218716.7       0             -218268.52     -186.13848      191151.37    
      5500   307.4976      -218707.38      0             -218256.37      1.3715487      191212.37    
      5600   312.1682      -218700.88      0             -218243.02      539.47943      191358.71    
      5700   313.73869     -218700.55      0             -218240.39      487.25392      191198.18    
      5800   312.65714     -218708.63      0             -218250.06      226.0221       191200.83    
      5900   305.36308     -218712.58      0             -218264.7       329.14415      191173.37    
      6000   304.89106     -218718.9       0             -218271.71     -281.95752      190921.35    
      6100   307.33306     -218715.73      0             -218264.96     -57.616627      191000.34    
      6200   311.39947     -218709         0             -218252.27      1302.0144      190711.98    
      6300   317.9983      -218708.51      0             -218242.1       376.57228      190805.27    
      6400   312.36493     -218704.63      0             -218246.48      329.89834      190617.81    
      6500   309.32249     -218712.78      0             -218259.09     -237.05019      190745.77    
      6600   308.0597      -218720.16      0             -218268.32     -284.25903      190770.3     
      6700   307.01102     -218717.5       0             -218267.2      -314.88435      190666.53    
      6800   312.77636     -218714.82      0             -218256.06     -641.88283      190860.05    
      6900   313.62347     -218706.31      0             -218246.32     -544.26715      190788.85    
      7000   315.62443     -218707.12      0             -218244.19     -1344.0763      191270.77    
      7100   313.85691     -218715.08      0             -218254.74     -184.66169      191116.07    
      7200   303.62247     -218711.42      0             -218266.09     -722.43198      191264.54    
      7300   305.45506     -218715.4       0             -218267.38     -1213.5786      191360.81    
      7400   304.93541     -218706.17      0             -218258.92     -259.95869      191242.02    
      7500   312.77526     -218704.21      0             -218245.46     -656.57386      191346.35    
      7600   315.76472     -218706.19      0             -218243.06      974.07475      191043.9     
      7700   311.58042     -218709.41      0             -218252.41     -393.02073      191265.25    
      7800   309.26846     -218719.61      0             -218266         435.55499      190990.34    
      7900   307.06088     -218719.57      0             -218269.2      -420.46811      191098.99    
      8000   307.90544     -218714.83      0             -218263.22      483.66802      190924.6     
      8100   313.0034      -218709.99      0             -218250.91     -356.47921      190934.35    
      8200   316.69897     -218709.25      0             -218244.75      1021.0125      190707.33    
      8300   309.92774     -218703.48      0             -218248.9      -103.04809      190896.92    
      8400   309.42742     -218714.73      0             -218260.89      768.52914      190774.3     
      8500   307.91351     -218718.25      0             -218266.63     -816.39063      191006.31    
      8600   305.69751     -218712.34      0             -218263.97     -1049.1166      190966.45    
      8700   309.56367     -218708.65      0             -218254.61      213.2771       190948.61    
      8800   312.37998     -218705.94      0             -218247.77     -206.72323      190996.5     
      8900   310.918       -218705.39      0             -218249.36     -656.01188      191119.65    
      9000   308.81859     -218710.44      0             -218257.49     -333.89159      191178.55    
      9100   308.03017     -218716.16      0             -218264.37      352.53862      191135.47    
      9200   308.9271      -218716.21      0             -218263.1      -717.01122      191378.23    
      9300   310.56225     -218712.02      0             -218256.51      365.26022      191339.94    
      9400   315.59595     -218710.36      0             -218247.47      148.3525       191200.19    
      9500   313.99022     -218707.72      0             -218247.19      433.67586      191138.19    
      9600   309.66798     -218708.57      0             -218254.38      170.80716      191287.36    
      9700   309.49191     -218716.62      0             -218262.68      336.16695      190980.82    
      9800   309.90302     -218720.26      0             -218265.72     -328.41849      190820.37    
      9900   313.72188     -218721.78      0             -218261.64      409.30427      190716.89    
     10000   312.01599     -218712.15      0             -218254.52      1266.0198      190557.68    
     10100   309.19165     -218701.81      0             -218248.31      121.44363      190752.41    
     10200   310.5823      -218706.43      0             -218250.9      -36.26618       190743.51    
     10300   308.05748     -218708.5       0             -218256.67     -1171.698       191114.12    
     10400   307.72914     -218715.5       0             -218264.15      392.7965       190768.47    
     10500   308.92721     -218716.33      0             -218263.22     -1165.1585      190962.45    
     10600   309.44978     -218712.46      0             -218258.59     -102.66864      191055.58    
     10700   309.94374     -218709.18      0             -218254.58     -119.09006      190832.5     
     10800   314.35472     -218710.59      0             -218249.52     -885.92487      191178.85    
     10900   312.3681      -218710.23      0             -218252.07      40.779591      191180.28    
     11000   309.31904     -218713.58      0             -218259.9       804.24738      190977.86    
     11100   307.19195     -218711.58      0             -218261.02     -566.58683      191369.46    
     11200   309.62083     -218713.79      0             -218259.67      206.73888      191094.87    
     11300   310.04091     -218710.7       0             -218255.96      65.945246      190808.98    
     11400   309.83164     -218706.88      0             -218252.45      204.9331       191002.05    
     11500   311.67474     -218709.79      0             -218252.65     -192.58869      190986.38    
     11600   312.83177     -218715.84      0             -218257.01     -171.75718      190883.99    
     11700   308.55566     -218712.57      0             -218260.01      47.972625      191054.54    
     11800   309.82134     -218715.94      0             -218261.52      176.23706      190820.55    
     11900   308.54377     -218711.53      0             -218258.99      1058.8513      190533.23    
     12000   311.80742     -218709.94      0             -218252.61      303.93438      190801.16    
     12100   309.64679     -218706.35      0             -218252.19      365.80176      190565.1     
     12200   311.58777     -218712.27      0             -218255.26     -7.4426769      190934.14    
     12300   307.06439     -218711.21      0             -218260.84      19.274419      190940.89    
     12400   306.90857     -218713.61      0             -218263.47      1045.4844      190686.82    
     12500   311.30168     -218714.21      0             -218257.61      690.45118      191028.62    
     12600   309.87457     -218707         0             -218252.5       637.59513      191070.37    
     12700   309.20695     -218705.14      0             -218251.62      240.80008      191036.53    
     12800   311.54215     -218711.87      0             -218254.93     -275.20299      191065.95    
     12900   310.48671     -218716.16      0             -218260.77      127.08655      191087.65    
     13000   308.99948     -218715.92      0             -218262.71      718.78438      191114.3     
     13100   310.89152     -218714.41      0             -218258.42      249.30254      191049.82    
     13200   312.61192     -218710.24      0             -218251.73     -1367.6928      191165.26    
     13300   314.36971     -218712.21      0             -218251.12      661.19662      190834.33    
     13400   311.29627     -218711.78      0             -218255.19     -1003.9108      191103.57    
     13500   308.17371     -218713.44      0             -218261.44      737.57362      190785.14    
     13600   310.07776     -218716.09      0             -218261.3      -768.04098      191097.21    
     13700   311.77089     -218716.27      0             -218258.99     -270.72012      191007.95    
     13800   311.64185     -218711.71      0             -218254.62      62.779279      190955.22    
     13900   309.59334     -218706.07      0             -218251.99     -256.84708      190833.11    
     14000   310.62921     -218707.27      0             -218251.66     -1457.7873      191203.44    
     14100   311.34012     -218713.61      0             -218256.96      338.94483      191061.81    
     14200   311.44756     -218719.69      0             -218262.89      885.0742       190818.06    
     14300   305.8877      -218711.66      0             -218263.01      757.41014      190949.23    
     14400   309.90921     -218712.47      0             -218257.92     -572.45405      191276.7     
     14500   311.04079     -218708.67      0             -218252.46      407.93615      190890.71    
     14600   313.3237      -218709.24      0             -218249.69      701.9538       191022.42    
     14700   309.20165     -218708.36      0             -218254.85     -732.52508      191069.4     
     14800   307.98717     -218713.66      0             -218261.93     -350.52711      191072.68    
     14900   307.51729     -218715.53      0             -218264.49     -1195.2102      191119.78    
     15000   306.09689     -218709.83      0             -218260.87     -1083.3072      191037       
     15100   315.09212     -218716.51      0             -218254.36      427.55794      190664.76    
     15200   312.00953     -218707.78      0             -218250.15      449.10682      190826.34    
     15300   307.85079     -218705.01      0             -218253.48      3.3204653      190943.62    
     15400   309.44056     -218713.55      0             -218259.69     -56.326693      191012.78    
     15500   308.67443     -218716         0             -218263.26      887.57545      191025.81    
     15600   303.55355     -218707.92      0             -218262.69      66.814619      191015.37    
     15700   310.14959     -218710.38      0             -218255.48     -520.66592      191181.07    
     15800   311.19258     -218707.65      0             -218251.22     -1.8711297      190933.24    
     15900   309.3321      -218706         0             -218252.3       710.45668      190976.31    
     16000   309.29982     -218711.86      0             -218258.2      -76.73283       191099.51    
     16100   308.92715     -218716.31      0             -218263.2       399.41915      190986.58    
     16200   306.33123     -218710.45      0             -218261.15     -699.80839      191117.02    
     16300   309.33761     -218709.9       0             -218256.19     -321.19688      191088.51    
     16400   312.35947     -218709.96      0             -218251.81     -1235.8112      191079.85    
     16500   312.51513     -218711.5       0             -218253.13      1172.377       190890.13    
     16600   307.1357      -218707.89      0             -218257.41      295.00803      191136.46    
     16700   308.07481     -218715.04      0             -218263.18      1154.9418      190821.68    
     16800   310.53269     -218716.93      0             -218261.46     -757.5365       191033.51    
     16900   309.01064     -218709.19      0             -218255.96     -490.23024      191169.5     
     17000   312.6724      -218710.91      0             -218252.31      382.94664      190920.82    
     17100   312.07946     -218710.37      0             -218252.64      758.5131       190884.14    
     17200   309.77204     -218710.48      0             -218256.13      170.55356      191029.6     
     17300   305.77939     -218710.03      0             -218261.54      52.952943      190923.36    
     17400   307.50592     -218714.29      0             -218263.27      853.20138      190577.68    
     17500   304.48153     -218705.42      0             -218258.83     -922.94367      191063.55    
     17600   310.77552     -218711.63      0             -218255.81     -237.10522      190693.33    
     17700   310.79033     -218708.88      0             -218253.04     -613.40386      190886.22    
     17800   312.12132     -218712.22      0             -218254.43     -503.38797      190931.46    
     17900   307.67735     -218709.89      0             -218258.62     -338.90152      190770.2     
     18000   312.66758     -218718.54      0             -218259.95     -828.62128      191045.2     
     18100   308.0809      -218711.67      0             -218259.8       78.675608      191137.88    
     18200   310.66992     -218711.69      0             -218256.03     -192.545        191175.79    
     18300   312.54044     -218711.56      0             -218253.15      330.10629      191100.47    
     18400   313.87113     -218714         0             -218253.64      703.20868      191018.31    
     18500   310.73049     -218712.69      0             -218256.93     -433.93406      191095.35    
     18600   310.83514     -218716.14      0             -218260.23     -514.46325      191015       
     18700   308.0676      -218712.47      0             -218260.62     -924.95943      190933.16    
     18800   311.4539      -218713.26      0             -218256.45      402.5907       191033.05    
     18900   311.4228      -218709.7       0             -218252.93      170.12465      191184.05    
     19000   312.54312     -218713.73      0             -218255.32     -73.093076      190843.72    
     19100   309.18029     -218711.16      0             -218257.68     -491.73218      190970.43    
     19200   310.24862     -218714.54      0             -218259.49      112.90974      190865.06    
     19300   308.36041     -218711.68      0             -218259.4      -365.82212      190900.31    
     19400   312.41757     -218714.34      0             -218256.11     -468.14161      191029.95    
     19500   312.53393     -218712.55      0             -218254.15     -63.298999      191174.54    
     19600   313.74509     -218714.8       0             -218254.63     -493.80051      191302.58    
     19700   311.29511     -218714.13      0             -218257.55      1114.0117      191051.47    
     19800   305.22192     -218705.67      0             -218258        -77.82476       191321.36    
     19900   312.08304     -218714.91      0             -218257.17     -504.20426      191302.9     
     20000   309.12727     -218709.94      0             -218256.54      608.22955      191336.47    
     20100   309.91967     -218710.12      0             -218255.55      392.70954      191192.71    
     20200   310.80879     -218711.04      0             -218255.17      192.70306      191159.92    
     20300   310.32068     -218711.83      0             -218256.67     -51.44461       191022.88    
     20400   310.70619     -218713.94      0             -218258.22      456.6363       190822.02    
     20500   312.32496     -218715.9       0             -218257.81      593.94941      191001.71    
     20600   311.64323     -218716.31      0             -218259.21      1419.4928      190779.12    
     20700   310.95844     -218714.73      0             -218258.65      81.073373      190755.16    
     20800   308.66349     -218708.75      0             -218256.03     -712.57534      190810.04    
     20900   306.14937     -218704.94      0             -218255.9      -817.31704      190650.99    
     21000   308.16897     -218710.03      0             -218258.03     -296.78559      190701.64    
     21100   311.97633     -218717.24      0             -218259.66     -405.47561      191013.83    
     21200   307.26256     -218710.97      0             -218260.3       333.43182      190860.71    
     21300   310.39442     -218713.48      0             -218258.22     -888.56122      191011.31    
     21400   311.25687     -218712.28      0             -218255.76      282.20998      191031.68    
     21500   312.05156     -218713.48      0             -218255.79      192.4179       191065       
     21600   309.25105     -218710.51      0             -218256.92     -746.73922      191269.03    
     21700   310.10963     -218712.57      0             -218257.73     -373.74073      191166.92    
     21800   308.90616     -218710.67      0             -218257.59     -434.84311      191102.98    
     21900   313.00592     -218715.41      0             -218256.32     -360.90953      190998.12    
     22000   312.93396     -218715.36      0             -218256.37      187.35831      191055.62    
     22100   306.83017     -218709.85      0             -218259.82      384.87809      190829.65    
     22200   312.26388     -218718.07      0             -218260.06     -335.78684      191099.33    
     22300   309.2246      -218713.19      0             -218259.64      434.07925      191098.42    
     22400   307.61251     -218710.73      0             -218259.55      1224.6889      190685.78    
     22500   313.41786     -218714.46      0             -218254.76     -102.74064      191017.58    
     22600   310.37446     -218709.89      0             -218254.65      191.8647       190944.36    
     22700   311.34849     -218715.53      0             -218258.87      1681.5777      190745.25    
     22800   310.70591     -218716.93      0             -218261.22     -1036.0812      191154.48    
     22900   307.14274     -218712.55      0             -218262.06      115.39616      190860.19    
     23000   311.55034     -218714.17      0             -218257.22      733.61413      191058.17    
     23005   311.67489     -218714.14      0             -218257         1107.6309      191052.45    
Loop time of 294.64 on 8 procs for 23000 steps with 11348 atoms

Performance: 6.745 ns/day, 3.558 hours/ns, 78.061 timesteps/s
97.5% CPU use with 8 MPI tasks x 1 OpenMP threads

MPI task timing breakdown:
Section |  min time  |  avg time  |  max time  |%varavg| %total
---------------------------------------------------------------
Pair    | 70.953     | 73.895     | 76.54      |  21.3 | 25.08
Kspace  | 136.27     | 139.06     | 142.36     |  16.8 | 47.20
Neigh   | 8.6804     | 9.0116     | 9.2721     |   6.1 |  3.06
Comm    | 4.3557     | 4.3889     | 4.4173     |   1.2 |  1.49
Output  | 0.354      | 0.35516    | 0.36292    |   0.5 |  0.12
Modify  | 52.846     | 54.437     | 55.734     |  11.8 | 18.48
Other   |            | 13.49      |            |       |  4.58

Nlocal:         1418.5 ave        1436 max        1403 min
Histogram: 1 2 0 0 1 1 1 1 0 1
Nghost:        3891.12 ave        3914 max        3861 min
Histogram: 1 0 1 0 0 3 0 1 0 2
Neighs:         105105 ave      110047 max      102926 min
Histogram: 2 1 2 1 1 0 0 0 0 1

Total # of neighbors = 840839
Ave neighs/atom = 74.095788
Neighbor list builds = 3513
Dangerous builds = 0
unfix 1

timestep 0.001
fix                 1 all nvt temp ${Tmp} ${Tmp} 0.1
fix                 1 all nvt temp 310 ${Tmp} 0.1
fix                 1 all nvt temp 310 310 0.1
compute             myRDF all rdf 100
fix                 RDF all ave/time 100 1 100 c_myRDF[*] file lammps00_${Tmp}.rdf mode vector
fix                 RDF all ave/time 100 1 100 c_myRDF[*] file lammps00_310.rdf mode vector
run                 345000
PPPM initialization ...
  using 12-bit tables for long-range coulomb (src/kspace.cpp:342)
  G vector (1/distance) = 0.36886443
  grid = 54 48 64
  stencil order = 5
  estimated absolute RMS force accuracy = 0.0017854557
  estimated relative force accuracy = 0.00012399304
  using double precision FFTW3
  3d grid and FFT values/proc = 34336 20736
Generated 0 of 6 mixed pair_coeff terms from geometric mixing rule
Neighbor list info ...
  update every 1 steps, delay 0 steps, check yes
  max neighbors/atom: 2000, page size: 100000
  master list distance cutoff = 8.3
  ghost atom cutoff = 8.3
  binsize = 4.15, bins = 14 12 18
  2 neighbor lists, perpetual/occasional/extra = 1 1 0
  (1) pair buck/coul/long, perpetual
      attributes: half, newton on
      pair build: half/bin/atomonly/newton
      stencil: half/bin/3d
      bin: standard
  (2) compute rdf, occasional, copy from (1)
      attributes: half, newton on
      pair build: copy
      stencil: none
      bin: none
Per MPI rank memory allocation (min/avg/max) = 8.235 | 8.236 | 8.237 Mbytes
   Step          Temp          E_pair         E_mol          TotEng         Press     
     23005   311.67489     -218714.14      0             -218257         1107.0663    
     23100   309.86587     -218712.23      0             -218257.75     -1294.6037    
     23200   312.82822     -218717.95      0             -218259.12     -682.5967     
     23300   310.01048     -218718.61      0             -218263.91      129.0181     
     23400   308.62928     -218719.17      0             -218266.5      -1072.9364    
     23500   310.22759     -218715.67      0             -218260.66      431.12839    
     23600   309.94415     -218708.89      0             -218254.29     -437.04613    
     23700   310.60951     -218711.21      0             -218255.63     -629.91193    
     23800   308.85978     -218712.14      0             -218259.13     -493.20766    
     23900   308.68161     -218714.29      0             -218261.54     -721.17827    
     24000   308.6464      -218720.93      0             -218268.24     -347.222      
     24100   307.11521     -218720.41      0             -218269.96     -136.57602    
     24200   307.02147     -218712.14      0             -218261.83     -414.40317    
     24300   308.43027     -218709.39      0             -218257.01     -131.05927    
     24400   309.24919     -218709.97      0             -218256.39      110.25912    
     24500   309.46855     -218712.9       0             -218259         477.56289    
     24600   308.44558     -218718.88      0             -218266.48      566.26861    
     24700   306.28572     -218718.14      0             -218268.9      -319.04963    
     24800   309.08573     -218714.66      0             -218261.32     -472.08811    
     24900   309.72393     -218710.24      0             -218255.97     -485.60644    
     25000   311.22916     -218712.89      0             -218256.4       118.21239    
     25100   309.76353     -218713.97      0             -218259.64      508.89519    
     25200   309.90319     -218718.03      0             -218263.49      311.27318    
     25300   310.70594     -218718.31      0             -218262.59      294.62834    
     25400   310.52263     -218710         0             -218254.55     -415.55262    
     25500   310.40253     -218706.24      0             -218250.96     -174.18005    
     25600   311.19683     -218710.62      0             -218254.18     -270.51249    
     25700   311.12341     -218717.18      0             -218260.85     -559.9614     
     25800   310.81197     -218717.12      0             -218261.24     -235.45955    
     25900   306.77905     -218709.65      0             -218259.69     -408.70748    
     26000   312.96778     -218712.93      0             -218253.89     -166.98223    
     26100   314.42084     -218712.31      0             -218251.14     -875.9582     
     26200   309.19258     -218713.49      0             -218259.99     -1407.6383    
     26300   308.03088     -218717.8       0             -218266.01     -502.73559    
     26400   309.19077     -218716.48      0             -218262.99     -246.71985    
     26500   309.33497     -218711.14      0             -218257.44      448.47361    
     26600   308.22962     -218706.3       0             -218254.22     -576.196      
     26700   312.27296     -218712.74      0             -218254.73     -997.53853    
     26800   309.38511     -218718.9       0             -218265.12      251.49215    
     26900   306.74001     -218715.37      0             -218265.47      249.7223     
     27000   306.60067     -218709.63      0             -218259.93      578.27293    
     27100   315.74877     -218717.79      0             -218254.68     -564.7347     
     27200   311.03103     -218712.03      0             -218255.83      960.01304    
     27300   308.02273     -218709.72      0             -218257.93      434.61701    
     27400   310.65555     -218717.26      0             -218261.61     -846.05631    
     27500   306.45765     -218721.61      0             -218272.12     -1320.0715    
     27600   304.07273     -218717.21      0             -218271.22     -1005.3218    
     27700   309.96173     -218718.92      0             -218264.3       417.72725    
     27800   308.77918     -218712.71      0             -218259.81      73.842672    
     27900   309.738       -218711.3       0             -218257        -125.26059    
     28000   311.52076     -218711.29      0             -218254.38     -415.85353    
     28100   311.75005     -218709.87      0             -218252.63      275.37719    
     28200   309.37449     -218709.24      0             -218255.48     -887.92081    
     28300   308.62133     -218714.79      0             -218262.13     -1232.3703    
     28400   308.92053     -218717.61      0             -218264.51     -1178.7044    
     28500   307.50013     -218711.33      0             -218260.32      1326.5901    
     28600   311.05582     -218707.7       0             -218251.47     -170.45342    
     28700   313.04514     -218711.04      0             -218251.89      905.82232    
     28800   310.59823     -218711.61      0             -218256.05     -1031.3471    
     28900   307.3069      -218710.02      0             -218259.29     -260.04841    
     29000   310.29591     -218715.97      0             -218260.86     -906.1274     
     29100   310.10719     -218718.74      0             -218263.9       40.643139    
     29200   305.45543     -218716.5       0             -218268.49     -807.29996    
     29300   309.75772     -218718.84      0             -218264.51      644.27144    
     29400   312.39717     -218715.57      0             -218257.38      582.4216     
     29500   314.37428     -218715.65      0             -218254.55     -195.2597     
     29600   313.71024     -218716.05      0             -218255.93      1117.5389    
     29700   310.80416     -218719.43      0             -218263.57      68.090341    
     29800   306.37132     -218718.06      0             -218268.7      -1058.882     
     29900   307.01633     -218714.93      0             -218264.62     -1956.9716    
     30000   311.41587     -218715.77      0             -218259.01     -1194.2919    
     30100   310.30176     -218711.73      0             -218256.61     -180.52959    
     30200   313.78573     -218716.34      0             -218256.1       132.11385    
     30300   309.22933     -218713.63      0             -218260.08      1442.0608    
     30400   306.43518     -218715.75      0             -218266.3      -1220.8256    
     30500   308.45851     -218717.3       0             -218264.88     -442.21299    
     30600   310.57345     -218712.24      0             -218256.72      228.30483    
     30700   309.16864     -218708.73      0             -218255.27      76.545378    
     30800   310.72391     -218713.68      0             -218257.94      144.44249    
     30900   308.95717     -218714.17      0             -218261.02      392.74705    
     31000   306.64174     -218718.09      0             -218268.33      18.367199    
     31100   306.35262     -218720.85      0             -218271.52     -70.928775    
     31200   309.12323     -218714.52      0             -218261.12      620.78218    
     31300   312.01839     -218714.92      0             -218257.28      496.92087    
     31400   311.97587     -218713.88      0             -218256.3       867.98042    
     31500   310.16953     -218712.19      0             -218257.26     -271.19126    
     31600   307.70611     -218713.15      0             -218261.83     -157.28199    
     31700   306.47358     -218715.54      0             -218266.03      151.60541    
     31800   309.54797     -218716.3       0             -218262.28      739.12754    
     31900   311.50706     -218710.57      0             -218253.68     -431.78633    
     32000   311.39652     -218709.94      0             -218253.21      53.1462      
     32100   308.15775     -218710.02      0             -218258.04      978.6909     
     32200   308.49514     -218715.44      0             -218262.96     -129.93051    
     32300   306.78107     -218713.35      0             -218263.39     -103.26369    
     32400   312.384       -218712.98      0             -218254.81      656.17244    
     32500   313.70944     -218708.42      0             -218248.3      -544.31802    
     32600   312.79783     -218712.25      0             -218253.47      189.35753    
     32700   310.85945     -218716.02      0             -218260.08     -255.79921    
     32800   310.96272     -218717.93      0             -218261.83     -429.22147    
     32900   310.24956     -218716.2       0             -218261.15      139.85324    
     33000   311.47117     -218711.59      0             -218254.75     -149.19218    
     33100   312.93165     -218708.88      0             -218249.9       513.38189    
     33200   311.79048     -218711.68      0             -218254.37      586.88764    
     33300   309.86654     -218713.78      0             -218259.29      793.894      
     33400   312.36993     -218717.73      0             -218259.57      858.52879    
     33500   311.60032     -218717         0             -218259.97      926.72405    
     33600   311.55675     -218716.01      0             -218259.04     -155.36472    
     33700   313.37603     -218712.86      0             -218253.23     -1493.4976    
     33800   313.9104      -218710.16      0             -218249.75     -435.70472    
     33900   309.60164     -218708.43      0             -218254.33     -199.5058     
     34000   309.48376     -218716.1       0             -218262.18     -1335.7911    
     34100   308.99238     -218716.09      0             -218262.89      47.339944    
     34200   309.67903     -218714.43      0             -218260.22     -207.5392     
     34300   313.16313     -218713.37      0             -218254.05      404.24252    
     34400   313.41169     -218708.1       0             -218248.42      782.87983    
     34500   314.35626     -218708.4       0             -218247.33     -663.62494    
     34600   307.65008     -218708.58      0             -218257.34     -1356.4504    
     34700   309.05763     -218714.53      0             -218261.23      589.28608    
     34800   312.766       -218722.6       0             -218263.86     -361.10858    
     34900   309.38341     -218716.01      0             -218262.23      458.17803    
     35000   308.89163     -218708.1       0             -218255.05     -36.274104    
     35100   313.98663     -218711.32      0             -218250.79     -297.67909    
     35200   314.72337     -218715.67      0             -218254.06      87.181892    
     35300   310.68336     -218714.16      0             -218258.48     -276.9893     
     35400   309.28187     -218712.67      0             -218259.05      38.8356      
     35500   312.89051     -218717.29      0             -218258.37      614.0018     
     35600   310.32165     -218712.12      0             -218256.97      654.47386    
     35700   313.02999     -218710.16      0             -218251.04      524.65713    
     35800   309.80615     -218704.3       0             -218249.9       153.10154    
     35900   311.28684     -218713.99      0             -218257.42     -498.62413    
     36000   308.7091      -218715.07      0             -218262.29     -148.05187    
     36100   309.58744     -218715.83      0             -218261.76      853.26094    
     36200   308.69614     -218710.41      0             -218257.64      1091.5583    
     36300   311.66903     -218708.27      0             -218251.14      574.37132    
     36400   312.20536     -218709.21      0             -218251.3       383.99319    
     36500   308.80539     -218716.53      0             -218263.6       245.85265    
     36600   307.81607     -218715.22      0             -218263.74      514.6535     
     36700   306.30054     -218707.77      0             -218258.51      339.17586    
     36800   309.29168     -218707.26      0             -218253.62      516.46928    
     36900   308.47621     -218705.94      0             -218253.5       668.87396    
     37000   308.26427     -218713.17      0             -218261.04     -741.57862    
     37100   309.40908     -218719.71      0             -218265.9       16.02121     
     37200   309.41594     -218717.11      0             -218263.29      36.85787     
     37300   307.69405     -218710.52      0             -218259.22     -787.96539    
     37400   307.2644      -218707.52      0             -218256.85      10.154345    
     37500   310.83636     -218712.71      0             -218256.8      -155.1734     
     37600   311.30644     -218713.74      0             -218257.14     -8.5702265    
     37700   311.29188     -218714.83      0             -218258.25     -1150.545     
     37800   311.23806     -218715.49      0             -218259        -962.96724    
     37900   310.37533     -218713.51      0             -218258.27      1008.9852    
     38000   312.42332     -218713.53      0             -218255.29      48.142601    
     38100   314.89827     -218711.69      0             -218249.82     -764.97104    
     38200   311.27931     -218705.41      0             -218248.85     -15.035851    
     38300   309.97362     -218712.52      0             -218257.88     -604.04844    
     38400   309.92093     -218715.67      0             -218261.1      -354.31242    
     38500   310.5608      -218715.5       0             -218260        -655.33226    
     38600   311.36943     -218713.03      0             -218256.34      192.73079    
     38700   313.09829     -218709.22      0             -218249.99      1067.9486    
     38800   311.67193     -218707.38      0             -218250.25      297.91464    
     38900   309.82178     -218714.76      0             -218260.34      327.25456    
     39000   309.86217     -218717.54      0             -218263.06      220.5548     
     39100   309.26673     -218714.66      0             -218261.05      509.61661    
     39200   310.22555     -218710.66      0             -218255.65      207.67705    
     39300   315.29374     -218712.45      0             -218250        -164.92102    
     39400   314.43788     -218706.01      0             -218244.81      8.3264868    
     39500   313.18433     -218706.79      0             -218247.44     -366.63574    
     39600   307.7448      -218708.34      0             -218256.96     -1660.1132    
     39700   308.47505     -218712.71      0             -218260.26     -1493.3028    
     39800   310.27714     -218715.95      0             -218260.86     -1062.7956    
     39900   312.19783     -218715.3       0             -218257.4      -19.93801     
     40000   313.48203     -218710.68      0             -218250.9       466.88518    
     40100   312.69952     -218709.74      0             -218251.1      -822.41542    
     40200   309.2936      -218714.54      0             -218260.89      179.47607    
     40300   308.4903      -218715.59      0             -218263.13     -395.45809    
     40400   309.24028     -218715.49      0             -218261.93      775.32452    
     40500   307.33118     -218706.98      0             -218256.22      460.5339     
     40600   307.57948     -218704.75      0             -218253.62      725.50897    
     40700   307.99647     -218710.8       0             -218259.06     -720.82025    
     40800   312.9187      -218725.07      0             -218266.11     -1004.8498    
     40900   307.59531     -218716.11      0             -218264.96     -433.74749    
     41000   307.44557     -218709.2       0             -218258.27     -471.09807    
     41100   314.55036     -218716.72      0             -218255.37      120.76475    
     41200   310.34544     -218711.76      0             -218256.57     -354.99787    
     41300   308.88722     -218712.41      0             -218259.36      143.17471    
     41400   308.37358     -218716.92      0             -218264.62      690.32545    
     41500   304.2028      -218718.47      0             -218272.29     -15.841926    
     41600   308.34492     -218720.71      0             -218268.45     -710.2495     
     41700   308.41451     -218714.42      0             -218262.06     -19.919997    
     41800   310.39483     -218713.91      0             -218258.65     -24.004347    
     41900   311.46005     -218712.89      0             -218256.06      230.71271    
     42000   312.77187     -218714.26      0             -218255.51     -746.24402    
     42100   306.86748     -218711.94      0             -218261.85     -155.61531    
     42200   307.35685     -218717.57      0             -218266.76     -300.98257    
     42300   310.4027      -218718.79      0             -218263.52      236.27834    
     42400   311.00594     -218713.57      0             -218257.42      23.165987    
     42500   310.37838     -218711.64      0             -218256.4      -419.81103    
     42600   308.78413     -218711.57      0             -218258.68     -738.93619    
     42700   308.48393     -218713.43      0             -218260.97     -1102.6855    
     42800   306.79369     -218713.7       0             -218263.72      22.709763    
     42900   304.24883     -218713.78      0             -218267.53      87.923027    
     43000   306.74574     -218713.24      0             -218263.33     -403.01304    
     43100   308.57611     -218708.6       0             -218256.01      942.33919    
     43200   312.04808     -218712.33      0             -218254.64      325.28059    
     43300   308.61277     -218709.68      0             -218257.03      1072.3295    
     43400   305.88763     -218713.06      0             -218264.41     -1186.3984    
     43500   309.36935     -218722.31      0             -218268.55     -434.00022    
     43600   307.07202     -218715.75      0             -218265.36     -1221.2084    
     43700   311.44328     -218717.88      0             -218261.09     -436.39765    
     43800   310.37078     -218712.22      0             -218256.99     -345.75741    
     43900   311.52166     -218712.27      0             -218255.35     -351.08227    
     44000   309.45352     -218708.81      0             -218254.93      1046.9507    
     44100   310.33223     -218715.01      0             -218259.84      508.21182    
     44200   307.46672     -218716.16      0             -218265.19     -919.43881    
     44300   306.2775      -218714.26      0             -218265.04      252.75105    
     44400   309.80498     -218710.93      0             -218256.53     -273.52118    
     44500   316.11171     -218717.05      0             -218253.4      -565.70677    
     44600   312.76596     -218714.74      0             -218256         730.11242    
     44700   311.14659     -218716.6       0             -218260.23     -118.50238    
     44800   309.40214     -218718.27      0             -218264.46     -1240.4286    
     44900   306.52142     -218716.86      0             -218267.28     -217.38996    
     45000   308.75304     -218717.78      0             -218264.93     -67.05008     
     45100   310.05237     -218711.37      0             -218256.61     -379.06996    
     45200   311.95685     -218710.34      0             -218252.79     -146.91259    
     45300   310.91617     -218710.09      0             -218254.06     -1222.807     
     45400   310.91485     -218717.12      0             -218261.1      -979.05103    
     45500   305.52834     -218713.49      0             -218265.36     -113.08178    
     45600   308.12793     -218715.62      0             -218263.69      389.35644    
     45700   309.02691     -218714.29      0             -218261.03     -398.88484    
     45800   308.07355     -218712         0             -218260.14      228.75736    
     45900   310.13618     -218713.15      0             -218258.26      827.73549    
     46000   311.79659     -218715.43      0             -218258.11      43.398055    
     46100   308.23895     -218712.32      0             -218260.22     -1188.0992    
     46200   307.63439     -218713.8       0             -218262.58     -483.12502    
     46300   310.27619     -218716.89      0             -218261.8      -1247.5354    
     46400   308.62865     -218709.89      0             -218257.22     -709.4884     
     46500   313.53745     -218711.34      0             -218251.47     -258.55848    
     46600   309.19856     -218707.32      0             -218253.82     -1587.9808    
     46700   306.89149     -218711.38      0             -218261.25     -1735.823     
     46800   308.61461     -218715.86      0             -218263.21     -817.74469    
     46900   306.6842      -218711.43      0             -218261.61      163.84274    
     47000   313.33948     -218717         0             -218257.42     -88.925919    
     47100   312.53553     -218712.63      0             -218254.22     -335.53655    
     47200   308.29761     -218709.67      0             -218257.48      329.98359    
     47300   307.35582     -218716.73      0             -218265.93      968.32448    
     47400   308.68151     -218719.18      0             -218266.44      1258.3928    
     47500   309.55456     -218714.47      0             -218260.44      466.24097    
     47600   309.40526     -218709.73      0             -218255.92      48.917489    
     47700   310.65308     -218712.22      0             -218256.58     -747.23703    
     47800   313.02295     -218717.18      0             -218258.06      83.787238    
     47900   313.63265     -218718.9       0             -218258.89      240.81121    
     48000   308.48015     -218714.94      0             -218262.49     -443.71135    
     48100   307.2679      -218717.61      0             -218266.94     -86.043941    
     48200   309.47777     -218718         0             -218264.08     -249.76633    
     48300   312.48806     -218715.08      0             -218256.75     -599.03784    
     48400   311.32182     -218712.31      0             -218255.69     -399.47813    
     48500   310.08714     -218712.31      0             -218257.5       1186.726     
     48600   308.40696     -218716.62      0             -218264.27      142.93848    
     48700   307.37414     -218721.05      0             -218270.22      1137.8203    
     48800   307.71954     -218716.94      0             -218265.6       693.69691    
     48900   309.23592     -218716.28      0             -218262.72     -252.91275    
     49000   310.06717     -218712.67      0             -218257.89      132.94865    
     49100   313.45301     -218713.73      0             -218253.99     -47.173515    
     49200   310.1174      -218710.59      0             -218255.74     -804.65927    
     49300   310.52544     -218716.56      0             -218261.11     -442.09995    
     49400   305.88386     -218714.24      0             -218265.6      -388.98336    
     49500   310.84694     -218719.05      0             -218263.12     -817.7331     
     49600   311.76889     -218710.8       0             -218253.52     -1110.4387    
     49700   312.55018     -218711.86      0             -218253.44      329.33382    
     49800   309.44623     -218713.12      0             -218259.25     -451.90693    
     49900   307.2019      -218713.79      0             -218263.22      614.01828    
     50000   309.25335     -218715.79      0             -218262.21     -356.219      
     50100   312.02314     -218711.66      0             -218254.01      193.18188    
     50200   315.76248     -218710.89      0             -218247.75      308.16765    
     50300   313.39811     -218712.64      0             -218252.97     -915.50938    
     50400   309.56517     -218712.95      0             -218258.91     -182.28685    
     50500   310.563       -218717.36      0             -218261.85     -1209.1681    
     50600   309.1854      -218715.85      0             -218262.36     -977.39471    
     50700   312.01945     -218713.93      0             -218256.28     -34.916386    
     50800   310.97395     -218705.6       0             -218249.49     -952.64242    
     50900   315.07923     -218714.42      0             -218252.29      1061.9218    
     51000   310.80862     -218714.16      0             -218258.29      105.81239    
     51100   308.6522      -218713.08      0             -218260.37      710.8996     
     51200   309.38212     -218714.01      0             -218260.24     -61.504457    
     51300   311.02112     -218715.38      0             -218259.2      -177.78502    
     51400   314.1018      -218713.53      0             -218252.83      440.08194    
     51500   310.75744     -218707.2       0             -218251.41      540.83114    
     51600   311.6662      -218714.89      0             -218257.76      663.9045     
     51700   312.56411     -218720.82      0             -218262.38     -384.1164     
     51800   308.90411     -218716.04      0             -218262.96     -156.73155    
     51900   309.89826     -218714.6       0             -218260.07      878.85113    
     52000   309.91132     -218712.32      0             -218257.77     -345.6288     
     52100   311.65087     -218714.43      0             -218257.32     -896.4099     
     52200   310.61023     -218713.48      0             -218257.9      -382.2467     
     52300   312.2157      -218715.43      0             -218257.5      -267.33432    
     52400   307.78793     -218711.31      0             -218259.87      534.12404    
     52500   307.81281     -218718.33      0             -218266.85      995.77909    
     52600   306.44446     -218717.66      0             -218268.2      -334.92655    
     52700   308.99527     -218712.38      0             -218259.17     -104.23994    
     52800   311.881       -218712.11      0             -218254.67      426.18596    
     52900   311.33395     -218712.92      0             -218256.28      82.839559    
     53000   307.09681     -218710.91      0             -218260.49      363.51266    
     53100   310.08975     -218720.37      0             -218265.55     -549.11493    
     53200   306.88701     -218721.11      0             -218270.99     -247.77828    
     53300   306.02903     -218719.56      0             -218270.7      -484.58095    
     53400   310.16817     -218715.28      0             -218260.35     -759.56864    
     53500   312.35539     -218714.05      0             -218255.92     -885.81225    
     53600   312.07375     -218713.05      0             -218255.32     -456.04274    
     53700   311.49651     -218713.2       0             -218256.32     -324.43003    
     53800   308.84401     -218715.59      0             -218262.6       662.43869    
     53900   306.07717     -218716.04      0             -218267.12      533.85115    
     54000   308.00557     -218714.66      0             -218262.91     -617.73416    
     54100   309.95        -218709         0             -218254.39     -507.39025    
     54200   308.95835     -218708.58      0             -218255.43     -290.73011    
     54300   307.17166     -218711.25      0             -218260.72      302.14272    
     54400   310.54256     -218720.38      0             -218264.9       674.54288    
     54500   311.30897     -218719.47      0             -218262.87     -595.32871    
     54600   310.37362     -218708.95      0             -218253.72      45.007766    
     54700   313.29333     -218710.75      0             -218251.23     -807.04743    
     54800   312.99952     -218713.86      0             -218254.78      171.79189    
     54900   310.4475      -218715.05      0             -218259.71     -875.26586    
     55000   308.44066     -218714.99      0             -218262.59      508.70316    
     55100   307.39032     -218712.45      0             -218261.6       50.167876    
     55200   312.29926     -218710.53      0             -218252.47     -61.526945    
     55300   313.63703     -218710.39      0             -218250.37     -43.434606    
     55400   310.65594     -218711.91      0             -218256.27      1084.3929    
     55500   312.32175     -218719.67      0             -218261.58      75.755532    
     55600   307.59005     -218713.27      0             -218262.12     -680.43311    
     55700   312.01124     -218718.62      0             -218260.99     -721.71269    
     55800   311.19037     -218716.01      0             -218259.58     -1561.8454    
     55900   309.84929     -218705.71      0             -218251.25      215.47269    
     56000   313.67811     -218709.42      0             -218249.35      146.73153    
     56100   310.68721     -218711.95      0             -218256.26     -801.72872    
     56200   308.05504     -218711.84      0             -218260.01     -17.113486    
     56300   311.35298     -218716.17      0             -218259.5      -232.91588    
     56400   310.18425     -218714.34      0             -218259.39      620.74393    
     56500   310.15523     -218715.48      0             -218260.57     -223.22799    
     56600   310.36119     -218717.58      0             -218262.36      378.68005    
     56700   308.85066     -218716.3       0             -218263.31      515.82224    
     56800   306.65673     -218710.75      0             -218260.97      350.62352    
     56900   307.49936     -218706.62      0             -218255.6      -752.51945    
     57000   313.04058     -218710.94      0             -218251.8      -1284.6397    
     57100   311.04711     -218710.89      0             -218254.67     -252.87909    
     57200   306.70169     -218713.71      0             -218263.86      841.25649    
     57300   309.535       -218717.87      0             -218263.87      732.71099    
     57400   309.3613      -218712.76      0             -218259.02     -173.80554    
     57500   310.4816      -218709.62      0             -218254.24      506.26228    
     57600   314.93671     -218717.99      0             -218256.06     -500.06637    
     57700   310.44084     -218713.04      0             -218257.72     -1424.0246    
     57800   308.79556     -218712.15      0             -218259.24      87.430576    
     57900   311.40246     -218717.97      0             -218261.23     -767.59741    
     58000   308.95043     -218714.71      0             -218261.57     -112.44421    
     58100   311.02144     -218712.19      0             -218256.01     -247.83121    
     58200   311.36487     -218709.02      0             -218252.34      307.00168    
     58300   310.24894     -218710.09      0             -218255.04     -957.09872    
     58400   309.97889     -218717.04      0             -218262.38     -891.22921    
     58500   307.15176     -218716.03      0             -218265.52      20.471192    
     58600   310.30592     -218718.54      0             -218263.41     -2166.4417    
     58700   309.66559     -218713.29      0             -218259.1      -878.57766    
     58800   312.38129     -218715.69      0             -218257.51      214.43298    
     58900   311.65224     -218715.07      0             -218257.97      693.97831    
     59000   312.27586     -218716.99      0             -218258.97     -751.33807    
     59100   306.22292     -218710.8       0             -218261.66     -14.432629    
     59200   310.65573     -218718.6       0             -218262.96     -914.86591    
     59300   310.45836     -218715.22      0             -218259.86      792.84439    
     59400   313.91483     -218714.2       0             -218253.78     -788.7783     
     59500   310.21252     -218708.56      0             -218253.57     -175.36062    
     59600   308.23133     -218712.47      0             -218260.39     -1136.0289    
     59700   305.85961     -218712.66      0             -218264.05      487.96895    
     59800   314.36137     -218723.25      0             -218262.17     -452.08458    
     59900   314.63691     -218718.44      0             -218256.95     -939.12155    
     60000   316.26889     -218709.4       0             -218245.53      107.33946    
     60100   312.44782     -218704.81      0             -218246.53     -177.38447    
     60200   312.02703     -218711.87      0             -218254.22      159.40548    
     60300   308.79375     -218713.16      0             -218260.24      742.25987    
     60400   308.12174     -218714.07      0             -218262.14      607.30905    
     60500   309.79556     -218715.48      0             -218261.1       58.715835    
     60600   312.52489     -218715.92      0             -218257.54      766.05987    
     60700   310.82186     -218707.62      0             -218251.73      594.65786    
     60800   310.87179     -218708.7       0             -218252.74     -370.85392    
     60900   311.86244     -218719.28      0             -218261.87     -1209.4004    
     61000   308.21082     -218716.13      0             -218264.07     -1308.8529    
     61100   307.07578     -218712.58      0             -218262.19     -795.20983    
     61200   310.09003     -218710.58      0             -218255.77     -150.53885    
     61300   313.50505     -218713.48      0             -218253.66     -909.29416    
     61400   309.78968     -218711.13      0             -218256.76     -567.34489    
     61500   309.95266     -218713.16      0             -218258.55     -1084.556     
     61600   309.83129     -218712.5       0             -218258.06     -1030.1186    
     61700   312.95483     -218716.74      0             -218257.73     -1133.4502    
     61800   309.69941     -218715.13      0             -218260.89     -302.0951     
     61900   305.08293     -218714.98      0             -218267.51      660.58453    
     62000   305.64512     -218715.86      0             -218267.57     -895.92539    
     62100   308.72468     -218711.5       0             -218258.68     -820.92093    
     62200   312.62021     -218713.71      0             -218255.19      195.54107    
     62300   312.45065     -218716.63      0             -218258.35     -728.12113    
     62400   310.54538     -218716.4       0             -218260.92      365.88325    
     62500   308.58251     -218717.52      0             -218264.91     -207.85617    
     62600   306.51652     -218719.31      0             -218269.73     -630.45873    
     62700   305.62303     -218716.65      0             -218268.39     -669.08864    
     62800   309.87863     -218713.78      0             -218259.28      165.26916    
     62900   307.22206     -218707.43      0             -218256.82     -594.48689    
     63000   313.91974     -218717.74      0             -218257.31     -500.56471    
     63100   310.73689     -218719.32      0             -218263.55     -195.4463     
     63200   305.77754     -218717.07      0             -218268.58     -316.86368    
     63300   306.05558     -218715.26      0             -218266.36      637.4071     
     63400   311.84933     -218712.45      0             -218255.06     -364.68119    
     63500   310.55863     -218710.43      0             -218254.93     -487.20318    
     63600   309.9231      -218715.39      0             -218260.82     -720.63532    
     63700   306.46355     -218715.2       0             -218265.7      -1146.5598    
     63800   308.22844     -218716.78      0             -218264.7      -25.24415     
     63900   310.17005     -218712.24      0             -218257.31      255.44474    
     64000   312.07294     -218710.31      0             -218252.58     -129.82304    
     64100   313.9051      -218715.86      0             -218255.45     -906.11875    
     64200   308.52405     -218713.3       0             -218260.79     -473.0194     
     64300   306.00588     -218712.76      0             -218263.94      145.3784     
     64400   307.15167     -218713.32      0             -218262.81      910.78463    
     64500   313.66439     -218714.67      0             -218254.61     -609.23507    
     64600   314.63787     -218710.6       0             -218249.11     -33.126531    
     64700   312.44644     -218712.06      0             -218253.79      387.22939    
     64800   314.66761     -218720.52      0             -218258.99     -262.46434    
     64900   310.86435     -218717.99      0             -218262.05     -9.8381672    
     65000   309.09839     -218717.87      0             -218264.51      695.42767    
     65100   311.01834     -218717.87      0             -218261.69      96.370323    
     65200   316.51408     -218716.85      0             -218252.62     -1264.8761    
     65300   316.12334     -218717.33      0             -218253.67      688.45037    
     65400   309.37436     -218714.26      0             -218260.49     -729.35094    
     65500   308.13467     -218714.87      0             -218262.93     -996.26523    
     65600   310.58245     -218718.22      0             -218262.68      309.09841    
     65700   308.65319     -218712.48      0             -218259.78     -211.09776    
     65800   309.7334      -218710.33      0             -218256.03      67.157051    
     65900   312.67907     -218707.59      0             -218248.98     -67.098424    
     66000   318.26651     -218716.82      0             -218250.01      415.54169    
     66100   310.43444     -218714.14      0             -218258.82     -179.09188    
     66200   309.81044     -218716.97      0             -218262.56     -749.4849     
     66300   307.98862     -218716.58      0             -218264.85     -668.85801    
     66400   306.21532     -218711.66      0             -218262.53      308.14255    
     66500   312.93412     -218712.76      0             -218253.78     -1291.6129    
     66600   311.86548     -218711         0             -218253.58     -151.49107    
     66700   312.09745     -218716.04      0             -218258.28      93.062096    
     66800   309.97435     -218715.64      0             -218261         546.4646     
     66900   309.47623     -218715.58      0             -218261.67     -360.9121     
     67000   309.57642     -218714.7       0             -218260.64      226.55796    
     67100   312.2827      -218715.94      0             -218257.91      7.0529117    
     67200   311.60796     -218709.06      0             -218252.02     -1143.0352    
     67300   315.63641     -218712.19      0             -218249.24     -102.90376    
     67400   311.14675     -218713.31      0             -218256.94     -528.60493    
     67500   308.5722      -218715.09      0             -218262.51     -398.57475    
     67600   307.41675     -218714.92      0             -218264.03     -256.60173    
     67700   310.9426      -218718.41      0             -218262.34     -744.81117    
     67800   311.67466     -218711.74      0             -218254.61      733.34258    
     67900   313.42119     -218710.02      0             -218250.32     -273.36755    
     68000   311.32221     -218711.99      0             -218255.36     -306.05699    
     68100   310.61982     -218714.44      0             -218258.85      33.813968    
     68200   310.69432     -218716.91      0             -218261.21      101.01899    
     68300   312.63773     -218722.43      0             -218263.88     -765.76152    
     68400   310.85264     -218719.96      0             -218264.03     -1243.5318    
     68500   310.44431     -218714.58      0             -218259.24     -614.08148    
     68600   311.42934     -218709.76      0             -218252.98     -155.87197    
     68700   312.14202     -218712.19      0             -218254.37     -401.40537    
     68800   311.16307     -218719.47      0             -218263.08      718.56352    
     68900   311.59368     -218721.65      0             -218264.63      152.68535    
     69000   306.94202     -218712.69      0             -218262.5       92.125626    
     69100   309.61309     -218712.45      0             -218258.34     -823.55986    
     69200   313.28101     -218712.68      0             -218253.18     -884.57058    
     69300   313.84764     -218710.26      0             -218249.93     -503.28054    
     69400   311.15958     -218711.27      0             -218254.89     -427.293      
     69500   309.84419     -218717.41      0             -218262.96     -328.46564    
     69600   307.77817     -218715.27      0             -218263.85     -567.26608    
     69700   310.86881     -218717.66      0             -218261.7      -216.11948    
     69800   311.72776     -218713.42      0             -218256.2       171.65374    
     69900   314.68892     -218713.12      0             -218251.57      881.54015    
     70000   312.76099     -218715.16      0             -218256.43     -912.45875    
     70100   313.31939     -218724.17      0             -218264.62     -995.27413    
     70200   305.46965     -218712.93      0             -218264.9      -1079.3323    
     70300   308.46738     -218712.36      0             -218259.93     -424.24613    
     70400   312.52194     -218713.85      0             -218255.47      541.32054    
     70500   313.42819     -218716.23      0             -218256.52      1237.5916    
     70600   308.24907     -218719.44      0             -218267.33     -53.674911    
     70700   305.17701     -218715.75      0             -218268.15     -260.19197    
     70800   306.20892     -218711.79      0             -218262.67      579.42163    
     70900   308.86469     -218710.9       0             -218257.89     -946.23199    
     71000   313.82575     -218717.39      0             -218257.1      -14.885269    
     71100   310.07473     -218715.59      0             -218260.8      -613.25205    
     71200   307.31022     -218720.48      0             -218269.74     -202.06482    
     71300   307.67664     -218724.05      0             -218272.78      558.92106    
     71400   309.64284     -218714.33      0             -218260.17     -14.492444    
     71500   309.08252     -218709.97      0             -218256.64     -132.31684    
     71600   312.61737     -218717.63      0             -218259.11      717.64627    
     71700   306.78559     -218714.46      0             -218264.49     -350.03058    
     71800   309.74417     -218719.64      0             -218265.34      232.30112    
     71900   310.31487     -218718.14      0             -218263         344.45187    
     72000   311.99243     -218713.09      0             -218255.48      588.02156    
     72100   311.45418     -218709.18      0             -218252.36     -138.91016    
     72200   309.06884     -218710.82      0             -218257.51      232.50103    
     72300   309.5077      -218714.73      0             -218260.77     -605.88312    
     72400   313.78222     -218721.86      0             -218261.63     -464.71471    
     72500   308.85105     -218715.35      0             -218262.36     -898.87425    
     72600   311.90184     -218717.62      0             -218260.15     -225.76225    
     72700   311.296       -218710.96      0             -218254.38      681.62799    
     72800   313.4678      -218711.54      0             -218251.77     -140.70411    
     72900   310.98399     -218715.24      0             -218259.11     -692.59964    
     73000   309.43918     -218718.02      0             -218264.17      452.1006     
     73100   307.12316     -218714.74      0             -218264.27      539.00555    
     73200   309.2242      -218713.72      0             -218260.18      823.76236    
     73300   313.55467     -218713.22      0             -218253.32      148.43057    
     73400   313.72656     -218710.37      0             -218250.22     -332.18964    
     73500   310.0939      -218716.45      0             -218261.63     -501.94063    
     73600   309.0875      -218718.84      0             -218265.5      -1401.4667    
     73700   309.49        -218718.43      0             -218264.5      -426.88537    
     73800   308.4722      -218711.85      0             -218259.41     -65.130097    
     73900   311.97308     -218712.19      0             -218254.61      84.959383    
     74000   311.8364      -218713.82      0             -218256.45      204.08571    
     74100   304.96239     -218713.7       0             -218266.41      735.373      
     74200   308.66333     -218718.61      0             -218265.89      96.720232    
     74300   310.16391     -218716.05      0             -218261.12     -175.80129    
     74400   312.63508     -218716.38      0             -218257.83      255.3429     
     74500   310.45117     -218714.12      0             -218258.78      470.0378     
     74600   310.93162     -218723.36      0             -218267.31     -1050.5523    
     74700   307.62771     -218721.25      0             -218270.05     -2.3302798    
     74800   309.11161     -218719.09      0             -218265.71     -341.56578    
     74900   311.87669     -218717.97      0             -218260.54     -650.71402    
     75000   312.67728     -218717.48      0             -218258.87     -365.98362    
     75100   312.29583     -218718.08      0             -218260.03     -819.83828    
     75200   312.45301     -218719.38      0             -218261.1       468.8666     
     75300   307.17989     -218714.06      0             -218263.51      679.32312    
     75400   310.97994     -218725.32      0             -218269.2       577.66269    
     75500   306.21609     -218724.81      0             -218275.67     -612.08653    
     75600   307.61125     -218720.73      0             -218269.55     -181.10819    
     75700   311.967       -218721.27      0             -218263.71      506.60804    
     75800   309.75908     -218715.65      0             -218261.32     -214.00746    
     75900   308.78258     -218712.25      0             -218259.36     -147.21031    
     76000   307.23465     -218709.98      0             -218259.35      38.750379    
     76100   314.06365     -218724.08      0             -218263.43     -346.97207    
     76200   304.85988     -218715.98      0             -218268.84     -1102.5099    
     76300   307.11541     -218718.15      0             -218267.69     -1405.7911    
     76400   307.08079     -218710.03      0             -218259.63     -998.96579    
     76500   312.75576     -218715.01      0             -218256.29     -1092.6058    
     76600   311.80755     -218716.4       0             -218259.07     -214.12252    
     76700   310.59866     -218719.6       0             -218264.04     -175.30924    
     76800   309.25054     -218720.23      0             -218266.65      212.86468    
     76900   309.79873     -218719.16      0             -218264.77      797.94728    
     77000   310.90872     -218715.23      0             -218259.22     -923.62495    
     77100   315.19389     -218709.11      0             -218246.81     -665.03286    
     77200   311.84657     -218707.6       0             -218250.21     -1023.5108    
     77300   311.15738     -218715.23      0             -218258.85     -173.28079    
     77400   307.32655     -218715.03      0             -218264.27     -73.827312    
     77500   310.36474     -218721.38      0             -218266.16     -1156.4703    
     77600   308.85651     -218719.41      0             -218266.4      -902.0157     
     77700   312.26525     -218716.41      0             -218258.41     -862.02986    
     77800   311.05352     -218712.1       0             -218255.88     -210.83957    
     77900   308.59913     -218713.11      0             -218260.48     -211.65662    
     78000   309.62918     -218717.94      0             -218263.8      -196.4511     
     78100   309.99428     -218719.27      0             -218264.59     -696.58257    
     78200   308.49772     -218716.76      0             -218264.28     -294.80496    
     78300   309.59029     -218717.14      0             -218263.06      137.10303    
     78400   311.99737     -218720.08      0             -218262.47      476.32715    
     78500   311.6546      -218720.67      0             -218263.57      48.723104    
     78600   309.33335     -218716.79      0             -218263.09     -935.24435    
     78700   311.0519      -218719.04      0             -218262.81     -1488.7401    
     78800   312.88338     -218721.21      0             -218262.3      -164.93028    
     78900   310.45276     -218718.04      0             -218262.7      -1256.7859    
     79000   309.34663     -218720.1       0             -218266.37     -1126.0475    
     79100   308.61239     -218722.31      0             -218269.67     -798.67198    
     79200   308.6778      -218720.68      0             -218267.93     -118.3837     
     79300   312.43386     -218718.84      0             -218260.58      389.48503    
     79400   310.25691     -218712.95      0             -218257.89      93.432834    
     79500   311.7921      -218717.45      0             -218260.14     -205.11117    
     79600   306.6854      -218719.35      0             -218269.53     -748.92175    
     79700   307.92561     -218722.16      0             -218270.52     -548.38033    
     79800   310.76007     -218723.11      0             -218267.32     -654.54544    
     79900   311.93507     -218719.85      0             -218262.33      933.87367    
     80000   312.17624     -218717.91      0             -218260.04     -692.91036    
     80100   309.30571     -218714.97      0             -218261.3      -399.32702    
     80200   304.32952     -218718.17      0             -218271.81      71.732344    
     80300   309.62907     -218725.03      0             -218270.9      -1492.2038    
     80400   310.58261     -218720.32      0             -218264.78     -1051.4709    
     80500   312.22329     -218719.18      0             -218261.23     -174.90112    
     80600   314.011       -218721.69      0             -218261.13      90.888902    
     80700   309.60481     -218717.57      0             -218263.47     -218.20528    
     80800   308.54334     -218726.14      0             -218273.59      34.063609    
     80900   305.52436     -218722.69      0             -218274.57     -1084.8111    
     81000   310.25119     -218724.71      0             -218269.66     -1108.4328    
     81100   310.26108     -218720.05      0             -218264.99      450.76975    
     81200   311.68449     -218719.18      0             -218262.03     -102.14118    
     81300   311.79569     -218719.94      0             -218262.63      310.51512    
     81400   308.43138     -218719.46      0             -218267.08      448.83536    
     81500   309.15155     -218728.09      0             -218274.65     -414.03877    
     81600   306.91623     -218721.72      0             -218271.56     -85.082075    
     81700   311.28031     -218721.31      0             -218264.75      211.6298     
     81800   311.74579     -218719.82      0             -218262.58     -1019.8556    
     81900   309.19663     -218716.65      0             -218263.15     -188.92858    
     82000   307.80852     -218716.79      0             -218265.32     -197.32114    
     82100   306.69985     -218720.11      0             -218270.27     -1217.0155    
     82200   306.67454     -218721.53      0             -218271.72     -27.685205    
     82300   309.89066     -218719.5       0             -218264.98      237.54998    
     82400   312.77502     -218717.87      0             -218259.12     -387.33801    
     82500   306.89708     -218710.84      0             -218260.71     -1373.9073    
     82600   307.86586     -218715.22      0             -218263.67     -405.53776    
     82700   309.85312     -218723.17      0             -218268.71      1258.7543    
     82800   305.08948     -218724.88      0             -218277.4       509.3389     
     82900   306.70873     -218723.81      0             -218273.95      261.42275    
     83000   311.66603     -218724.93      0             -218267.8      -357.45771    
     83100   310.99738     -218719.52      0             -218263.38     -287.16866    
     83200   313.14125     -218720.14      0             -218260.85     -120.01384    
     83300   311.30691     -218716         0             -218259.4      -483.47378    
     83400   309.62304     -218713.98      0             -218259.85     -227.31323    
     83500   308.60877     -218717.62      0             -218264.98     -1408.3412    
     83600   307.07082     -218720.48      0             -218270.09     -1598.2916    
     83700   307.462       -218719.45      0             -218268.49     -845.87978    
     83800   306.07888     -218709.51      0             -218260.58      574.23643    
     83900   314.3103      -218719.35      0             -218258.35      768.16674    
     84000   309.69164     -218715.17      0             -218260.94      829.50402    
     84100   310.05352     -218719.89      0             -218265.13     -916.55544    
     84200   313.90006     -218727.61      0             -218267.21      179.79014    
     84300   306.26035     -218718.25      0             -218269.06     -303.40398    
     84400   307.0891      -218719.33      0             -218268.92     -9.7381864    
     84500   310.54784     -218717.6       0             -218262.12     -369.70398    
     84600   312.41136     -218717.08      0             -218258.86     -335.41893    
     84700   311.20036     -218718.02      0             -218261.58     -1814.957     
     84800   307.86982     -218720.74      0             -218269.18     -117.17898    
     84900   308.79804     -218722.68      0             -218269.77     -642.81477    
     85000   307.64781     -218717.61      0             -218266.38     -1883.0592    
     85100   310.78824     -218720.44      0             -218264.61     -738.37314    
     85200   311.37127     -218719.73      0             -218263.04     -684.01076    
     85300   312.48817     -218720.05      0             -218261.72     -932.63117    
     85400   310.1862      -218714.78      0             -218259.82     -384.04517    
     85500   308.90155     -218711.37      0             -218258.3      -264.59811    
     85600   311.42322     -218719.36      0             -218262.59      386.68826    
     85700   305.75189     -218716.32      0             -218267.87     -15.62484     
     85800   307.04628     -218719.41      0             -218269.06     -987.11765    
     85900   309.56988     -218715.91      0             -218261.86     -467.05509    
     86000   313.26898     -218714.53      0             -218255.06     -1458.4292    
     86100   310.62121     -218713.52      0             -218257.92     -1165.235     
     86200   309.71534     -218717.35      0             -218263.08     -1027.9872    
     86300   310.26026     -218721.58      0             -218266.51     -645.43715    
     86400   308.25472     -218718.44      0             -218266.31     -204.85205    
     86500   309.45621     -218717.52      0             -218263.64     -508.63988    
     86600   308.84598     -218716.41      0             -218263.42     -120.28276    
     86700   308.19022     -218716.45      0             -218264.43      580.48593    
     86800   311.57258     -218723.03      0             -218266.04     -398.72725    
     86900   311.23927     -218723.05      0             -218266.55     -1121.3284    
     87000   310.23615     -218719.8       0             -218264.77     -648.01632    
     87100   313.97657     -218722.09      0             -218261.58     -191.27239    
     87200   312.28421     -218718.14      0             -218260.11     -491.22162    
     87300   308.92208     -218714.73      0             -218261.63     -571.16979    
     87400   310.36789     -218723.23      0             -218268        -661.81139    
     87500   309.10089     -218724.25      0             -218270.89     -1020.0097    
     87600   310.57339     -218722.74      0             -218267.22     -46.972017    
     87700   309.57383     -218711.65      0             -218257.59     -594.35753    
     87800   316.95264     -218722.06      0             -218257.18     -659.11789    
     87900   309.40475     -218716.42      0             -218262.62      46.488118    
     88000   308.52755     -218719.34      0             -218266.82      57.09212     
     88100   309.74237     -218721.2       0             -218266.89      500.22602    
     88200   308.87229     -218718.73      0             -218265.7      -509.26392    
     88300   311.86305     -218721.39      0             -218263.97     -691.80961    
     88400   310.85758     -218720.45      0             -218264.51      2.0603164    
     88500   307.05131     -218714.38      0             -218264.02      586.04471    
     88600   311.11633     -218718.27      0             -218261.95      55.18149     
     88700   309.37989     -218716.61      0             -218262.84     -674.5804     
     88800   309.90244     -218719.28      0             -218264.74     -270.6857     
     88900   307.39733     -218719.65      0             -218268.79     -1362.0702    
     89000   307.64322     -218721.16      0             -218269.93     -1093.4288    
     89100   307.89802     -218715.2       0             -218263.6      -45.357153    
     89200   311.17829     -218714.36      0             -218257.95      810.11012    
     89300   308.29092     -218711.92      0             -218259.75     -21.632502    
     89400   310.24294     -218718.46      0             -218263.42      811.70067    
     89500   307.03492     -218716.03      0             -218265.69     -294.53857    
     89600   307.92175     -218717.66      0             -218266.03     -1112.7937    
     89700   314.53866     -218726.09      0             -218264.75     -436.4044     
     89800   308.86034     -218716.96      0             -218263.95      402.10049    
     89900   311.95859     -218718.73      0             -218261.18      1138.8811    
     90000   311.91249     -218713.3       0             -218255.81      627.54137    
     90100   310.35504     -218712.51      0             -218257.31     -823.64949    
     90200   310.02942     -218719.16      0             -218264.44     -1182.1837    
     90300   308.61212     -218719.88      0             -218267.24     -643.17063    
     90400   307.08961     -218716.22      0             -218265.81     -612.6742     
     90500   306.47985     -218714.09      0             -218264.57     -919.1412     
     90600   314.09101     -218717.82      0             -218257.14     -189.02482    
     90700   314.14027     -218714.18      0             -218253.43     -173.85086    
     90800   310.69083     -218715.76      0             -218260.06     -789.70825    
     90900   312.73915     -218724.04      0             -218265.34     -18.791289    
     91000   309.4283      -218720.52      0             -218266.67     -401.17167    
     91100   310.47448     -218720.65      0             -218265.27     -160.45937    
     91200   309.37105     -218712.47      0             -218258.72      344.98044    
     91300   313.81054     -218713         0             -218252.73      782.32342    
     91400   311.19907     -218713.66      0             -218257.22      54.079185    
     91500   310.84766     -218719.02      0             -218263.09     -294.62169    
     91600   306.73555     -218714.26      0             -218264.37      349.27425    
     91700   309.77268     -218719.74      0             -218265.39     -302.75387    
     91800   305.38567     -218715.51      0             -218267.59     -1132.6031    
     91900   307.71707     -218721.03      0             -218269.7      -239.64169    
     92000   307.91233     -218717.29      0             -218265.67     -109.24368    
     92100   311.35562     -218715.67      0             -218259        -4.6851811    
     92200   313.2614      -218718.24      0             -218258.77     -492.08527    
     92300   310.47819     -218720.64      0             -218265.25     -807.79639    
     92400   306.6551      -218717.6       0             -218267.82     -255.2742     
     92500   309.2678      -218720.22      0             -218266.61     -66.234961    
     92600   309.51577     -218717.69      0             -218263.72      50.226351    
     92700   308.66104     -218714.04      0             -218261.33      52.825433    
     92800   313.88346     -218717.33      0             -218256.95     -1220.127     
     92900   313.57433     -218714.59      0             -218254.67     -868.95157    
     93000   310.78073     -218718.51      0             -218262.68      178.11764    
     93100   309.41189     -218720.86      0             -218267.04     -819.75786    
     93200   309.06894     -218719.39      0             -218266.07     -146.93226    
     93300   313.26608     -218720.93      0             -218261.46      387.32521    
     93400   309.7372      -218710.94      0             -218256.65     -929.43545    
     93500   313.57161     -218709.55      0             -218249.63      160.87252    
     93600   315.43221     -218718.3       0             -218255.65     -773.66596    
     93700   309.9398      -218716.53      0             -218261.94     -11.622471    
     93800   307.22753     -218715.82      0             -218265.2      -262.75716    
     93900   310.40756     -218722.2       0             -218266.92      1241.789     
     94000   307.75731     -218717.27      0             -218265.88      1168.3064    
     94100   311.22816     -218716.4       0             -218259.92     -269.12889    
     94200   311.40742     -218712.59      0             -218255.85     -609.11643    
     94300   312.15922     -218718.95      0             -218261.11     -208.14118    
     94400   306.88035     -218718.44      0             -218268.33      168.14042    
     94500   308.98549     -218720.13      0             -218266.94      1088.6566    
     94600   309.72775     -218717.64      0             -218263.36     -894.8166     
     94700   311.62769     -218715.14      0             -218258.07     -1435.416     
     94800   315.16998     -218714.79      0             -218252.53     -384.81973    
     94900   314.82204     -218714.42      0             -218252.67     -437.7645     
     95000   310.2071      -218718.01      0             -218263.02     -15.743165    
     95100   305.53608     -218715.32      0             -218267.18      375.17904    
     95200   306.91931     -218717.88      0             -218267.71      677.12587    
     95300   307.71421     -218716.12      0             -218264.79     -154.09295    
     95400   314.53118     -218719.05      0             -218257.73      118.3137     
     95500   312.33602     -218715.53      0             -218257.42     -159.02961    
     95600   305.84948     -218714.25      0             -218265.66     -73.959021    
     95700   305.14833     -218718.68      0             -218271.12      74.628494    
     95800   306.43244     -218717.01      0             -218267.56     -892.35185    
     95900   311.57247     -218718.97      0             -218261.98     -221.9058     
     96000   310.29757     -218715.11      0             -218259.99      635.2035     
     96100   310.79557     -218717.55      0             -218261.7      -701.7078     
     96200   307.63562     -218724.13      0             -218272.92     -298.77766    
     96300   306.8356      -218723.44      0             -218273.4       207.05714    
     96400   306.35405     -218715.72      0             -218266.39      22.688643    
     96500   307.58736     -218713.37      0             -218262.23     -17.656918    
     96600   311.7422      -218718.67      0             -218261.43     -1214.8356    
     96700   311.83996     -218721.98      0             -218264.6      -1240.5918    
     96800   308.33176     -218725.24      0             -218273.01     -545.89209    
     96900   309.47613     -218727.43      0             -218273.52     -21.176264    
     97000   310.99954     -218723.11      0             -218266.97      935.6686     
     97100   310.02652     -218718.94      0             -218264.22      673.55868    
     97200   311.18094     -218720.17      0             -218263.75      259.87543    
     97300   310.12948     -218719.43      0             -218264.56      808.5258     
     97400   309.82403     -218720.38      0             -218265.96      523.84695    
     97500   307.35566     -218719.91      0             -218269.11     -352.99358    
     97600   307.52361     -218720.47      0             -218269.42     -836.19343    
     97700   312.60544     -218721.82      0             -218263.32     -1059.5591    
     97800   309.70743     -218712.2       0             -218257.94     -510.40354    
     97900   312.90678     -218716.54      0             -218257.6       344.69185    
     98000   308.52375     -218718.04      0             -218265.53     -269.70048    
     98100   309.52288     -218726.23      0             -218272.25      800.30692    
     98200   307.67497     -218721.32      0             -218270.05     -593.29739    
     98300   310.76631     -218719.54      0             -218263.74     -375.33294    
     98400   309.56621     -218713.4       0             -218259.35     -402.8639     
     98500   311.57457     -218716.46      0             -218259.47      423.44862    
     98600   313.30914     -218722.8       0             -218263.26      644.55998    
     98700   312.51875     -218723.18      0             -218264.8      -133.04618    
     98800   311.53456     -218721.45      0             -218264.52     -1144.1419    
     98900   312.58267     -218722.83      0             -218264.36     -287.46971    
     99000   307.16505     -218717.75      0             -218267.23     -376.95852    
     99100   307.30672     -218722.27      0             -218271.54      473.40001    
     99200   309.26653     -218724.35      0             -218270.74     -217.71724    
     99300   309.24459     -218716.76      0             -218263.19     -229.22948    
     99400   308.91952     -218712.52      0             -218259.42     -259.12046    
     99500   313.22612     -218719.79      0             -218260.38     -685.05916    
     99600   308.78428     -218717.99      0             -218265.1      -752.00519    
     99700   306.44465     -218718.23      0             -218268.76     -804.77501    
     99800   305.73948     -218716.32      0             -218267.89      93.479081    
     99900   308.53075     -218717.2       0             -218264.68      373.61241    
    100000   314.14819     -218724.16      0             -218263.39      718.47679    
    100100   308.31379     -218714.99      0             -218262.79      33.903986    
    100200   309.93003     -218718.71      0             -218264.13      387.68276    
    100300   309.33512     -218722.56      0             -218268.85     -313.79294    
    100400   307.41477     -218722.23      0             -218271.34     -1280.8124    
    100500   307.58148     -218717.18      0             -218266.04      182.10754    
    100600   314.11614     -218719.55      0             -218258.83     -852.89716    
    100700   312.91423     -218719.42      0             -218260.46      959.05548    
    100800   308.83514     -218717.56      0             -218264.59     -25.747102    
    100900   308.724       -218721.16      0             -218268.35      131.36172    
    101000   305.25294     -218721.35      0             -218273.63     -1407.7589    
    101100   304.88213     -218727.3       0             -218280.13     -1008.9566    
    101200   307.15255     -218723.17      0             -218272.66     -854.52766    
    101300   309.17758     -218720.05      0             -218266.58     -485.67582    
    101400   312.36414     -218720.37      0             -218262.22     -359.94228    
    101500   311.8036      -218717         0             -218259.67     -309.21223    
    101600   309.99639     -218717.45      0             -218262.77     -112.2098     
    101700   307.08483     -218721.73      0             -218271.33     -201.77832    
    101800   306.67642     -218721.89      0             -218272.08     -304.51626    
    101900   311.18596     -218723.55      0             -218267.13     -31.132126    
    102000   311.39837     -218721.06      0             -218264.33      810.11839    
    102100   311.12103     -218719.68      0             -218263.35      312.02904    
    102200   309.27491     -218717.23      0             -218263.61     -371.83252    
    102300   308.45834     -218721.56      0             -218269.14      7.0787207    
    102400   306.14937     -218722.57      0             -218273.53     -540.67171    
    102500   304.36218     -218713.85      0             -218267.44     -588.35385    
    102600   307.01028     -218711.8       0             -218261.51     -748.02744    
    102700   309.2794      -218714.63      0             -218261        -2330.2335    
    102800   307.97006     -218715.44      0             -218263.73     -530.76688    
    102900   307.04477     -218720.02      0             -218269.67      1050.2683    
    103000   306.92008     -218723.81      0             -218273.65      1077.8563    
    103100   309.5187      -218723.13      0             -218269.16      786.23242    
    103200   310.28997     -218715.98      0             -218260.87      545.83167    
    103300   311.37822     -218716.66      0             -218259.96      1239.8822    
    103400   308.49225     -218715.3       0             -218262.83      489.91805    
    103500   309.8799      -218724.74      0             -218270.24     -43.95801     
    103600   308.73507     -218726.41      0             -218273.59     -86.706711    
    103700   310.97087     -218725.99      0             -218269.89      839.7052     
    103800   310.56283     -218721.44      0             -218265.93      364.94383    
    103900   309.13059     -218716.62      0             -218263.21     -571.84467    
    104000   311.59478     -218718.46      0             -218261.44      34.166727    
    104100   308.11344     -218714.89      0             -218262.98      119.75583    
    104200   306.66829     -218719.72      0             -218269.93     -446.61565    
    104300   303.70102     -218718.98      0             -218273.54     -1380.8874    
    104400   308.90049     -218721.35      0             -218268.28     -1160.8315    
    104500   309.86191     -218716.13      0             -218261.65      137.01056    
    104600   310.66806     -218716.7       0             -218261.04     -242.33394    
    104700   308.01215     -218715.11      0             -218263.34      149.44604    
    104800   306.34836     -218718.76      0             -218269.43      806.46816    
    104900   305.35364     -218721.98      0             -218274.11      167.49447    
    105000   304.5825      -218723.98      0             -218277.25      592.96634    
    105100   308.57315     -218722.92      0             -218270.33      48.760735    
    105200   307.1646      -218713.56      0             -218263.04     -1010.7354    
    105300   312.04645     -218717.86      0             -218260.18     -230.85196    
    105400   314.11341     -218721.5       0             -218260.78     -813.70603    
    105500   307.18859     -218719.08      0             -218268.52     -805.76418    
    105600   308.63711     -218723.73      0             -218271.05     -1567.4857    
    105700   306.95674     -218717.89      0             -218267.68     -1731.3762    
    105800   311.99974     -218721.37      0             -218263.76     -1158.472     
    105900   310.48768     -218718.52      0             -218263.12      365.35677    
    106000   311.16118     -218720.21      0             -218263.82      88.067314    
    106100   306.37894     -218715.16      0             -218265.79      153.94514    
    106200   306.86939     -218720.64      0             -218270.55     -1031.2998    
    106300   310.54508     -218727.61      0             -218272.13     -28.998455    
    106400   307.62881     -218716.83      0             -218265.63      993.12768    
    106500   312.7003      -218718.5       0             -218259.86     -505.12265    
    106600   309.19962     -218713.65      0             -218260.14     -1021.7674    
    106700   308.49782     -218716.59      0             -218264.11     -1468.3542    
    106800   307.6466      -218719.54      0             -218268.31     -782.00558    
    106900   308.78069     -218721.11      0             -218268.22      142.69737    
    107000   311.23777     -218722.3       0             -218265.8      -14.365548    
    107100   308.17206     -218716.08      0             -218264.08      219.36972    
    107200   309.55133     -218716.38      0             -218262.36     -494.54682    
    107300   310.00857     -218715.97      0             -218261.28      26.781209    
    107400   309.96482     -218719.95      0             -218265.32     -493.41599    
    107500   305.8216      -218719.81      0             -218271.25      836.74767    
    107600   307.79682     -218722.07      0             -218270.62     -900.38795    
    107700   312.84633     -218720         0             -218261.14     -43.09583     
    107800   311.35804     -218714.45      0             -218257.78      656.08673    
    107900   312.18196     -218719.13      0             -218261.25     -39.632466    
    108000   311.10729     -218722.79      0             -218266.48     -1174.8675    
    108100   311.42701     -218723.91      0             -218267.14     -435.35372    
    108200   308.98719     -218718.65      0             -218265.45      195.91118    
    108300   309.96972     -218718.22      0             -218263.58     -227.55131    
    108400   310.69329     -218718.87      0             -218263.17     -124.07842    
    108500   310.04941     -218718.13      0             -218263.38      20.773635    
    108600   307.29502     -218715.15      0             -218264.44     -724.79988    
    108700   308.16768     -218718.26      0             -218266.27      71.61342     
    108800   304.33257     -218717.82      0             -218271.45     -727.36271    
    108900   307.62185     -218727.04      0             -218275.84      516.45855    
    109000   310.17402     -218725.35      0             -218270.42      732.75053    
    109100   312.82881     -218722.59      0             -218263.76      560.36274    
    109200   306.08912     -218711.52      0             -218262.58     -1257.7928    
    109300   310.50387     -218716.73      0             -218261.3      -484.49052    
    109400   306.7075      -218716.15      0             -218266.3      -684.86013    
    109500   308.93046     -218725.68      0             -218272.57     -372.4728     
    109600   306.37149     -218718.45      0             -218269.09      710.83926    
    109700   307.19465     -218714.4       0             -218263.83     -843.81207    
    109800   310.98576     -218719.17      0             -218263.05     -227.28346    
    109900   311.11271     -218719.57      0             -218263.26     -678.64342    
    110000   310.27608     -218720.31      0             -218265.22     -168.16255    
    110100   308.56227     -218723.56      0             -218270.99      648.46781    
    110200   300.72031     -218715.59      0             -218274.52     -264.89923    
    110300   310.6464      -218723.07      0             -218267.44      184.64815    
    110400   312.49482     -218720.9       0             -218262.56     -203.31841    
    110500   311.95085     -218719.77      0             -218262.23      421.47634    
    110600   309.77545     -218718.55      0             -218264.2       1026.9793    
    110700   303.81464     -218712.75      0             -218267.14      472.17431    
    110800   306.98399     -218724.36      0             -218274.1       121.1901     
    110900   303.99735     -218721.81      0             -218275.93     -800.59183    
    111000   308.11381     -218718.95      0             -218267.04     -164.85082    
    111100   310.80972     -218719.22      0             -218263.35      212.84492    
    111200   310.98994     -218718.41      0             -218262.28     -105.97947    
    111300   309.90351     -218717.84      0             -218263.3      -974.94699    
    111400   310.64116     -218723.38      0             -218267.76      798.48226    
    111500   306.29567     -218722.69      0             -218273.44      177.99376    
    111600   308.10113     -218722.74      0             -218270.84      549.27303    
    111700   311.5531      -218719.52      0             -218262.56     -523.2987     
    111800   311.22833     -218717.87      0             -218261.39      1309.2439    
    111900   313.19093     -218722.94      0             -218263.58      866.64452    
    112000   308.72941     -218721.93      0             -218269.12      533.86822    
    112100   308.75724     -218727.07      0             -218274.21     -889.02764    
    112200   302.85359     -218722.78      0             -218278.58     -940.46939    
    112300   304.72971     -218718.73      0             -218271.77     -373.36865    
    112400   309.89819     -218718.9       0             -218264.37      191.4886     
    112500   315.08567     -218723.65      0             -218261.51      118.74645    
    112600   310.71385     -218716.45      0             -218260.72     -329.15016    
    112700   309.40268     -218718.34      0             -218264.54     -392.78068    
    112800   308.40334     -218723.42      0             -218271.08      797.12615    
    112900   311.27616     -218727.7       0             -218271.14     -641.85419    
    113000   311.36764     -218719.79      0             -218263.1      -221.60526    
    113100   311.67417     -218713.91      0             -218256.78      213.97436    
    113200   310.77557     -218716.51      0             -218260.69     -1063.9988    
    113300   309.15425     -218719.48      0             -218266.04     -622.11615    
    113400   308.90002     -218721.91      0             -218268.85      962.99375    
    113500   311.79188     -218724.47      0             -218267.16      1472.5868    
    113600   313.59762     -218717.07      0             -218257.11     -845.79726    
    113700   314.97665     -218717.08      0             -218255.1       25.966066    
    113800   310.8189      -218717.66      0             -218261.78     -717.79292    
    113900   310.64744     -218721.62      0             -218265.99     -783.77337    
    114000   310.50404     -218722.5       0             -218267.08     -542.61522    
    114100   308.33972     -218717.82      0             -218265.57     -211.23102    
    114200   314.27229     -218717.93      0             -218256.98      145.87636    
    114300   309.97015     -218708.89      0             -218254.25     -369.08821    
    114400   309.98892     -218713.76      0             -218259.09      686.62712    
    114500   309.98121     -218717.9       0             -218263.25      403.79784    
    114600   311.1287      -218721.12      0             -218264.78      21.936415    
    114700   308.49484     -218718.69      0             -218266.21     -238.62718    
    114800   308.84969     -218720.99      0             -218267.99      393.07756    
    114900   308.10003     -218719.03      0             -218267.13     -672.07095    
    115000   309.60595     -218715.76      0             -218261.65     -538.92144    
    115100   311.7266      -218715.27      0             -218258.06     -393.90647    
    115200   310.099       -218714.33      0             -218259.5      -979.86177    
    115300   307.19712     -218719.59      0             -218269.02     -420.34991    
    115400   309.99899     -218725.12      0             -218270.44      762.05553    
    115500   308.90197     -218720.16      0             -218267.09     -37.176063    
    115600   307.77031     -218712.62      0             -218261.2      -186.87756    
    115700   309.1549      -218714.14      0             -218260.7       90.809674    
    115800   314.18753     -218723.3       0             -218262.48      96.734589    
    115900   309.83353     -218719.38      0             -218264.95     -33.005048    
    116000   306.94715     -218717.34      0             -218267.14      670.53233    
    116100   307.43427     -218723.35      0             -218272.43      745.43863    
    116200   306.93104     -218728.04      0             -218277.86     -86.133305    
    116300   308.81537     -218725         0             -218272.05     -582.4077     
    116400   308.35545     -218717.4       0             -218265.13     -965.57574    
    116500   309.38102     -218716.58      0             -218262.81     -261.32608    
    116600   311.28404     -218717.92      0             -218261.35     -1270.0728    
    116700   311.56837     -218718.86      0             -218261.88     -578.6731     
    116800   309.7326      -218722.95      0             -218268.67     -684.8755     
    116900   306.55026     -218722.92      0             -218273.3      -1093.0825    
    117000   308.6926      -218721.98      0             -218269.22     -304.96999    
    117100   310.24429     -218718.6       0             -218263.56     -402.90834    
    117200   312.29463     -218721.48      0             -218263.43      1053.0152    
    117300   310.85102     -218721.59      0             -218265.66      1021.4465    
    117400   310.49529     -218724.52      0             -218269.11      47.395262    
    117500   308.62516     -218723.14      0             -218270.47      944.45465    
    117600   309.50729     -218721.94      0             -218267.98     -106.68588    
    117700   309.92687     -218715.3       0             -218260.73     -93.762212    
    117800   312.229       -218715.77      0             -218257.82     -624.7234     
    117900   307.46134     -218714.24      0             -218263.29     -1132.3195    
    118000   306.97004     -218717.98      0             -218267.75      364.96545    
    118100   313.51651     -218727.31      0             -218267.47     -823.24879    
    118200   308.78393     -218718.84      0             -218265.94     -1017.1306    
    118300   309.27366     -218717.26      0             -218263.65     -272.53594    
    118400   308.31988     -218714.95      0             -218262.73     -406.83976    
    118500   309.22967     -218716.73      0             -218263.17      284.74453    
    118600   308.09093     -218717.11      0             -218265.23      179.13406    
    118700   308.27859     -218721.35      0             -218269.19      75.406883    
    118800   308.6915      -218722.14      0             -218269.38      762.35487    
    118900   313.15776     -218722.06      0             -218262.74     -541.63792    
    119000   314.26311     -218718.69      0             -218257.76      130.97953    
    119100   312.02607     -218718.18      0             -218260.53     -757.31703    
    119200   311.3136      -218721.08      0             -218264.48      107.9554     
    119300   309.86728     -218721.18      0             -218266.69      215.49612    
    119400   312.84375     -218724.04      0             -218265.19     -714.65137    
    119500   309.64318     -218717.37      0             -218263.22     -489.11406    
    119600   312.43566     -218718.22      0             -218259.97     -366.51359    
    119700   313.35531     -218716.37      0             -218256.77     -308.61871    
    119800   310.59544     -218715.5       0             -218259.95      479.8871     
    119900   307.14638     -218718.67      0             -218268.18     -288.6343     
    120000   309.10195     -218723.24      0             -218269.88     -215.89684    
    120100   308.4728      -218719.67      0             -218267.23      155.9753     
    120200   312.77371     -218717.87      0             -218259.12     -219.95224    
    120300   314.11227     -218719.11      0             -218258.4       144.87306    
    120400   311.11085     -218718.15      0             -218261.84      602.68282    
    120500   309.6896      -218719.79      0             -218265.56     -810.27989    
    120600   309.99282     -218722.16      0             -218267.49     -61.158069    
    120700   310.58615     -218720.77      0             -218265.23     -963.98979    
    120800   311.01891     -218712.04      0             -218255.86     -50.532377    
    120900   311.41596     -218712.47      0             -218255.71     -650.21817    
    121000   311.52293     -218719.65      0             -218262.74     -750.97257    
    121100   307.3386      -218716.58      0             -218265.81      189.67534    
    121200   308.19396     -218718.49      0             -218266.46      731.78647    
    121300   312.44838     -218724.23      0             -218265.95      45.606754    
    121400   311.19759     -218719.37      0             -218262.93      11.719404    
    121500   312.14863     -218715.63      0             -218257.8       118.53334    
    121600   316.60121     -218722.65      0             -218258.29     -939.11261    
    121700   309.1886      -218719.98      0             -218266.49     -90.590275    
    121800   307.53322     -218720.37      0             -218269.31      692.08373    
    121900   311.10098     -218724.16      0             -218267.86     -295.63137    
    122000   313.30167     -218723.49      0             -218263.96      708.64249    
    122100   315.50462     -218717.66      0             -218254.91     -325.71037    
    122200   314.04605     -218712.06      0             -218251.45     -1157.016     
    122300   313.06668     -218716.24      0             -218257.06     -125.16015    
    122400   311.61834     -218718.88      0             -218261.83     -764.06963    
    122500   307.828       -218718.34      0             -218266.84     -762.953      
    122600   308.6643      -218721.12      0             -218268.39     -439.20749    
    122700   308.35        -218718.79      0             -218266.53      33.969354    
    122800   313.73511     -218718.59      0             -218258.43      556.48674    
    122900   313.25826     -218715.56      0             -218256.1      -548.8531     
    123000   310.60717     -218718.17      0             -218262.59     -1084.2059    
    123100   307.72775     -218717.92      0             -218266.57     -1583.9397    
    123200   308.86066     -218719.36      0             -218266.35     -625.86252    
    123300   308.82802     -218719.98      0             -218267.01      1005.5291    
    123400   311.71301     -218722.27      0             -218265.08      573.45708    
    123500   314.47684     -218721         0             -218259.76      732.51493    
    123600   310.71309     -218713.84      0             -218258.12     -184.24497    
    123700   311.2145      -218721.62      0             -218265.16      540.09909    
    123800   305.98766     -218719.39      0             -218270.59      220.51657    
    123900   310.61605     -218723.65      0             -218268.07      705.92462    
    124000   313.32549     -218723.75      0             -218264.19      61.813742    
    124100   308.93462     -218714.58      0             -218261.46     -525.83734    
    124200   314.37531     -218716.99      0             -218255.89     -398.79413    
    124300   313.08024     -218713.1       0             -218253.9       407.18077    
    124400   310.26099     -218717.31      0             -218262.25      16.299534    
    124500   307.09443     -218717.35      0             -218266.93     -406.25648    
    124600   309.02586     -218721.57      0             -218268.31     -775.6084     
    124700   312.09263     -218723.26      0             -218265.51      72.865195    
    124800   315.35318     -218720.76      0             -218258.23     -366.67275    
    124900   311.50209     -218711.38      0             -218254.49     -413.82415    
    125000   313.17673     -218720.05      0             -218260.71      549.58351    
    125100   310.2423      -218720.13      0             -218265.09      1092.6063    
    125200   312.60144     -218724.23      0             -218265.74      923.68925    
    125300   311.50394     -218723.13      0             -218266.24      156.67856    
    125400   309.49192     -218718.44      0             -218264.51      0.052831866  
    125500   316.08644     -218724.15      0             -218260.54     -296.1239     
    125600   310.9892      -218715.44      0             -218259.3      -5.2928874    
    125700   310.55972     -218720.53      0             -218265.02      838.17593    
    125800   308.04592     -218722.71      0             -218270.9      -921.26303    
    125900   307.14583     -218719.73      0             -218269.23     -307.14115    
    126000   310.09272     -218719.09      0             -218264.28     -530.45154    
    126100   310.35045     -218718.74      0             -218263.55     -11.750947    
    126200   309.16023     -218717.46      0             -218264.01     -3.6369886    
    126300   309.37234     -218718.67      0             -218264.91      215.73985    
    126400   306.39676     -218719.21      0             -218269.81     -798.90366    
    126500   309.61797     -218731.18      0             -218277.06     -478.63545    
    126600   311.68593     -218731.87      0             -218274.71      174.14577    
    126700   307.34516     -218716.13      0             -218265.35     -729.47522    
    126800   313.13662     -218722.42      0             -218263.14      250.66165    
    126900   309.47437     -218718.38      0             -218264.47     -291.60079    
    127000   310.92892     -218722.95      0             -218266.9       199.8975     
    127100   308.68334     -218722.77      0             -218270.02      290.9161     
    127200   309.97669     -218723.38      0             -218268.73     -165.13692    
    127300   310.46647     -218716.82      0             -218261.46     -855.84399    
    127400   307.20823     -218709.43      0             -218258.84     -182.48331    
    127500   314.01305     -218723.67      0             -218263.1      -203.86573    
    127600   308.27137     -218723.11      0             -218270.96     -1091.0522    
    127700   306.97608     -218720.86      0             -218270.62     -1201.8395    
    127800   309.6717      -218720.92      0             -218266.72      345.40039    
    127900   312.90113     -218721.3       0             -218262.36      74.027085    
    128000   310.47126     -218716.96      0             -218261.58      1759.1966    
    128100   314.32924     -218726.58      0             -218265.54      351.82693    
    128200   307.93468     -218726.56      0             -218274.9       167.12044    
    128300   305.51088     -218719.97      0             -218271.87     -109.82706    
    128400   310.13722     -218719.53      0             -218264.65      353.5063     
    128500   309.61875     -218715.91      0             -218261.79     -542.37182    
    128600   311.50021     -218717.36      0             -218260.48     -1068.9737    
    128700   310.07953     -218717.53      0             -218262.73     -178.91638    
    128800   307.42429     -218722.57      0             -218271.67     -817.39479    
    128900   308.65977     -218725.59      0             -218272.87     -1124.9583    
    129000   307.69148     -218718.05      0             -218266.75     -496.35888    
    129100   309.81499     -218717.42      0             -218263.01      181.44459    
    129200   309.30139     -218717.43      0             -218263.77      1047.6751    
    129300   305.91206     -218713.57      0             -218264.88      1012.2356    
    129400   306.39855     -218716.01      0             -218266.61     -9.060942     
    129500   308.41772     -218725.67      0             -218273.31      244.94456    
    129600   306.2016      -218724.5       0             -218275.39      1144.2381    
    129700   311.36508     -218723.72      0             -218267.03      168.09278    
    129800   312.25065     -218721.19      0             -218263.21      687.50483    
    129900   311.81521     -218719.01      0             -218261.67     -73.369259    
    130000   310.62453     -218720.46      0             -218264.87     -628.65672    
    130100   306.61233     -218721.52      0             -218271.81     -279.28412    
    130200   307.92942     -218726.34      0             -218274.69     -268.88017    
    130300   307.41786     -218718.32      0             -218267.43     -497.98594    
    130400   309.73331     -218714.82      0             -218260.53      646.29821    
    130500   313.87852     -218720.34      0             -218259.97      463.42948    
    130600   311.14607     -218722.7       0             -218266.34      601.34441    
    130700   310.35965     -218725.44      0             -218270.23      712.49356    
    130800   310.76732     -218724.73      0             -218268.92      17.283882    
    130900   311.54639     -218718.58      0             -218261.63     -762.29263    
    131000   313.63391     -218714.84      0             -218254.83      108.95062    
    131100   310.86462     -218714.28      0             -218258.33     -591.37125    
    131200   312.87597     -218722.36      0             -218263.46     -896.75365    
    131300   309.61717     -218722.12      0             -218268        -657.49435    
    131400   309.34457     -218721.74      0             -218268.02     -1124.5488    
    131500   309.00252     -218715.34      0             -218262.12     -967.37001    
    131600   313.16996     -218715.12      0             -218255.79      671.40991    
    131700   313.68883     -218719.94      0             -218259.85      859.9413     
    131800   310.85765     -218720.37      0             -218264.43      690.33329    
    131900   312.19702     -218723.63      0             -218265.73     -312.65812    
    132000   309.41257     -218720.51      0             -218266.69     -132.03058    
    132100   311.39076     -218721.64      0             -218264.92     -510.37859    
    132200   313.66003     -218717.78      0             -218257.73     -334.11784    
    132300   310.14979     -218710.06      0             -218255.16     -9.0196339    
    132400   314.71156     -218723.72      0             -218262.13     -497.32973    
    132500   309.34842     -218721.23      0             -218267.51      404.99655    
    132600   313.74132     -218726.45      0             -218266.29     -72.998321    
    132700   309.66043     -218718.31      0             -218264.13     -454.20969    
    132800   311.25878     -218716.71      0             -218260.18      49.3095      
    132900   314.2427      -218716.55      0             -218255.65     -973.38309    
    133000   311.34249     -218715.23      0             -218258.58     -209.93262    
    133100   311.65918     -218724.26      0             -218267.15      1094.204     
    133200   310.68113     -218724.26      0             -218268.58      670.83681    
    133300   312.02415     -218724.56      0             -218266.91      456.24549    
    133400   311.99189     -218718.1       0             -218260.49      234.38997    
    133500   313.66095     -218715.27      0             -218255.21      555.96288    
    133600   311.38702     -218716.12      0             -218259.4      -123.78146    
    133700   310.1986      -218718.96      0             -218263.98     -296.34882    
    133800   310.3382      -218719.91      0             -218264.73      651.14289    
    133900   310.10138     -218720.57      0             -218265.74     -76.415931    
    134000   306.30343     -218716.94      0             -218267.68     -28.416173    
    134100   306.81039     -218717.28      0             -218267.28      336.89076    
    134200   311.12163     -218717.99      0             -218261.67      53.061463    
    134300   311.61596     -218714.21      0             -218257.16      63.498745    
    134400   314.05413     -218721.42      0             -218260.79      590.93319    
    134500   308.49281     -218721.25      0             -218268.78      486.73755    
    134600   306.48301     -218718.49      0             -218268.96      210.49841    
    134700   308.85835     -218719.01      0             -218266        -243.57437    
    134800   313.31976     -218721.34      0             -218261.79     -557.82484    
    134900   312.50026     -218716.92      0             -218258.57      1011.6413    
    135000   312.44835     -218716.78      0             -218258.51      711.86022    
    135100   310.97963     -218722.26      0             -218266.14      474.66393    
    135200   307.58316     -218722.01      0             -218270.87      584.23208    
    135300   307.73045     -218720.84      0             -218269.49      498.04116    
    135400   311.64929     -218718.73      0             -218261.63     -521.6929     
    135500   310.80588     -218715.85      0             -218259.99      293.6393     
    135600   313.01194     -218721.27      0             -218262.17     -558.78337    
    135700   309.79714     -218721.23      0             -218266.84     -1271.9269    
    135800   306.17916     -218716.23      0             -218267.16      140.16416    
    135900   312.06066     -218722.64      0             -218264.94      727.66381    
    136000   310.74675     -218719.68      0             -218263.9       127.03521    
    136100   311.80077     -218721.64      0             -218264.32      708.57263    
    136200   311.95584     -218721.4       0             -218263.85      92.943747    
    136300   312.01278     -218721.53      0             -218263.9      -480.37627    
    136400   309.54782     -218720.58      0             -218266.57      310.24937    
    136500   306.25368     -218721.38      0             -218272.19      703.23563    
    136600   305.55771     -218720.55      0             -218272.38      837.64268    
    136700   311.80721     -218720.59      0             -218263.26     -392.93618    
    136800   310.60389     -218715.36      0             -218259.8      -614.7777     
    136900   313.36559     -218721.54      0             -218261.92     -582.22816    
    137000   312.37404     -218725.16      0             -218266.99      87.303615    
    137100   308.02144     -218720.67      0             -218268.89     -328.11572    
    137200   310.27694     -218720.97      0             -218265.88      373.8699     
    137300   315.4293      -218717.45      0             -218254.81     -1427.3121    
    137400   311.25824     -218714.1       0             -218257.57     -981.06244    
    137500   310.79016     -218720.94      0             -218265.1       577.46717    
    137600   311.68357     -218725.64      0             -218268.49      196.64507    
    137700   308.78264     -218721.45      0             -218268.55     -703.80307    
    137800   311.37942     -218719.04      0             -218262.34      138.2238     
    137900   314.88295     -218718.41      0             -218256.56      490.88246    
    138000   310.53075     -218714.92      0             -218259.46      353.94895    
    138100   311.62791     -218720.4       0             -218263.33      162.75366    
    138200   311.40522     -218722.5       0             -218265.76     -379.70755    
    138300   306.09029     -218715.83      0             -218266.88     -956.06107    
    138400   309.80252     -218719.72      0             -218265.33     -641.61091    
    138500   312.3909      -218717.69      0             -218259.5      -126.93827    
    138600   309.61283     -218709.92      0             -218255.8      -445.44701    
    138700   308.36399     -218714.78      0             -218262.5      -30.22838     
    138800   309.48662     -218722.06      0             -218268.14      736.86383    
    138900   312.70586     -218726.61      0             -218267.96      129.28678    
    139000   310.49576     -218720.24      0             -218264.83      542.89997    
    139100   312.41778     -218718.26      0             -218260.03      616.45001    
    139200   311.65255     -218710.73      0             -218253.63     -692.2143     
    139300   312.94924     -218713.58      0             -218254.57      147.31297    
    139400   313.83294     -218725         0             -218264.7       413.59274    
    139500   311.61973     -218724.17      0             -218267.12     -983.87024    
    139600   311.74623     -218723.57      0             -218266.33      795.74989    
    139700   310.75089     -218718.84      0             -218263.05      456.49348    
    139800   313.73399     -218716.35      0             -218256.19      25.463336    
    139900   312.38423     -218716.7       0             -218258.52      59.645041    
    140000   307.25022     -218717.26      0             -218266.61      139.08782    
    140100   305.88355     -218715.78      0             -218267.13     -621.40852    
    140200   307.92465     -218718         0             -218266.36      209.16831    
    140300   307.8621      -218714.94      0             -218263.39     -390.83886    
    140400   311.09236     -218714.56      0             -218258.28     -259.42591    
    140500   312.78827     -218713.05      0             -218254.28     -71.090962    
    140600   309.73519     -218716.6       0             -218262.31      166.9695     
    140700   308.1162      -218719.81      0             -218267.9      -546.94485    
    140800   309.47217     -218721.8       0             -218267.89      317.56449    
    140900   310.28847     -218720.6       0             -218265.5       503.6428     
    141000   310.71372     -218715.67      0             -218259.95     -133.50262    
    141100   313.27192     -218716.79      0             -218257.31      14.77621     
    141200   307.45289     -218714.9       0             -218263.95      204.66184    
    141300   311.27493     -218726.78      0             -218270.23      153.35926    
    141400   308.92864     -218723.1       0             -218269.99      74.431703    
    141500   307.91902     -218715.96      0             -218264.33      152.30629    
    141600   310.36636     -218713.9       0             -218258.69      642.97339    
    141700   314.29512     -218720.88      0             -218259.9      -533.78711    
    141800   309.0288      -218715.86      0             -218262.6       413.51941    
    141900   307.77503     -218717.51      0             -218266.09      667.2586     
    142000   310.75196     -218724.76      0             -218268.98      865.91071    
    142100   305.76861     -218723.15      0             -218274.67     -423.49212    
    142200   309.62057     -218731.49      0             -218277.37     -719.12192    
    142300   311.1251      -218724.72      0             -218268.39     -346.41886    
    142400   310.93718     -218719.28      0             -218263.22      950.09705    
    142500   312.33227     -218720.52      0             -218262.42     -92.980514    
    142600   311.25318     -218722         0             -218265.48      0.70621172   
    142700   308.83112     -218724.31      0             -218271.34     -346.07802    
    142800   308.07822     -218724.43      0             -218272.57      176.83588    
    142900   309.36821     -218717.11      0             -218263.36     -613.23261    
    143000   312.80634     -218717.74      0             -218258.95      39.038984    
    143100   311.74076     -218718.88      0             -218261.64      566.0464     
    143200   309.6973      -218721.85      0             -218267.62      205.88199    
    143300   309.04761     -218723.91      0             -218270.63     -515.44307    
    143400   307.75921     -218720.14      0             -218268.75      68.286094    
    143500   312.47083     -218715.28      0             -218256.98      506.21305    
    143600   313.1811      -218715.96      0             -218256.61      564.26805    
    143700   309.38036     -218717.06      0             -218263.28      293.33139    
    143800   307.33327     -218719.08      0             -218268.31     -1290.2861    
    143900   310.18571     -218722.24      0             -218267.28     -759.59065    
    144000   311.94452     -218722.92      0             -218265.39     -425.91683    
    144100   311.87749     -218715.17      0             -218257.74     -617.00083    
    144200   312.01669     -218711.67      0             -218254.03     -657.55106    
    144300   313.87367     -218720.89      0             -218260.53      334.03422    
    144400   309.73784     -218719.5       0             -218265.2      -901.91384    
    144500   307.99211     -218717.78      0             -218266.04     -742.12789    
    144600   312.03424     -218723.09      0             -218265.43     -435.83541    
    144700   313.21222     -218721.35      0             -218261.96     -910.40274    
    144800   311.10029     -218713.2       0             -218256.9       495.85182    
    144900   315.10185     -218718.87      0             -218256.7       55.851293    
    145000   308.84311     -218719.39      0             -218266.4      -725.60656    
    145100   313.35365     -218727.8       0             -218268.2      -1451.5868    
    145200   308.52561     -218719.47      0             -218266.95     -474.27151    
    145300   309.44429     -218715.69      0             -218261.82     -558.32534    
    145400   312.96317     -218713.85      0             -218254.82      127.60519    
    145500   313.82927     -218714.3       0             -218254        -348.03136    
    145600   306.89025     -218716         0             -218265.88      595.08794    
    145700   311.36493     -218724.16      0             -218267.47      1082.2725    
    145800   311.94584     -218723.97      0             -218266.44      192.22499    
    145900   308.9904      -218716.24      0             -218263.04     -4.1136492    
    146000   313.55099     -218719.31      0             -218259.42      561.04581    
    146100   314.52133     -218717.57      0             -218256.25     -522.59221    
    146200   311.94416     -218720.65      0             -218263.12      189.12884    
    146300   307.04861     -218720.62      0             -218270.27      796.87291    
    146400   309.78302     -218724.13      0             -218269.76      11.082782    
    146500   309.4531      -218717.32      0             -218263.44     -990.8675     
    146600   313.66318     -218720.01      0             -218259.96     -646.53121    
    146700   311.90467     -218718.89      0             -218261.41      235.87959    
    146800   310.1549      -218719.29      0             -218264.39     -66.707433    
    146900   308.05302     -218717.27      0             -218265.44      14.387861    
    147000   311.32004     -218722.34      0             -218265.72      601.89121    
    147100   310.84103     -218721.96      0             -218266.05      251.63967    
    147200   310.27896     -218719.47      0             -218264.38      139.96515    
    147300   309.84735     -218714.83      0             -218260.37      853.45636    
    147400   312.46359     -218717.14      0             -218258.85     -189.27962    
    147500   312.7359      -218721.1       0             -218262.41      124.59351    
    147600   307.70422     -218721.17      0             -218269.86     -350.62972    
    147700   310.45469     -218724.97      0             -218269.63     -276.31762    
    147800   311.01699     -218722.09      0             -218265.91      244.94081    
    147900   312.43594     -218721.39      0             -218263.14      107.24086    
    148000   313.21479     -218721.71      0             -218262.32     -32.323474    
    148100   309.18173     -218716.78      0             -218263.3       955.98536    
    148200   314.94149     -218725.73      0             -218263.8       500.4641     
    148300   307.97888     -218718.72      0             -218267         455.67926    
    148400   309.41841     -218725.03      0             -218271.2       250.5977     
    148500   307.5519      -218723.33      0             -218272.24     -90.30065     
    148600   311.37702     -218720.18      0             -218263.48      558.64415    
    148700   314.68502     -218720.67      0             -218259.11     -593.58048    
    148800   313.46314     -218721.4       0             -218261.64     -713.0538     
    148900   308.08467     -218720.18      0             -218268.31     -661.56066    
    149000   309.51938     -218723.82      0             -218269.84     -363.18726    
    149100   309.54995     -218721.74      0             -218267.72      128.04548    
    149200   308.45334     -218717.07      0             -218264.65      62.183541    
    149300   308.50805     -218716.76      0             -218264.27     -227.4777     
    149400   310.17782     -218719.25      0             -218264.3      -300.18445    
    149500   309.05799     -218720.13      0             -218266.83     -318.69216    
    149600   310.88126     -218726.9       0             -218270.93     -768.10285    
    149700   305.3847      -218721.31      0             -218273.4       352.42158    
    149800   311.06994     -218723.55      0             -218267.29      924.28189    
    149900   311.02245     -218717.42      0             -218261.24      665.17771    
    150000   311.28548     -218716.94      0             -218260.37     -226.41355    
    150100   310.00141     -218717.47      0             -218262.78      40.579096    
    150200   310.3052      -218727.28      0             -218272.15      548.8371     
    150300   305.64368     -218722.82      0             -218274.53     -618.20842    
    150400   307.82916     -218721.05      0             -218269.55     -1088.5847    
    150500   310.31263     -218719.95      0             -218264.81     -1087.8698    
    150600   311.7428      -218719.1       0             -218261.86      223.52785    
    150700   312.89611     -218720.94      0             -218262.02      455.24907    
    150800   309.27262     -218724.54      0             -218270.92      64.960582    
    150900   305.71834     -218723.73      0             -218275.32      521.19061    
    151000   307.37931     -218721.86      0             -218271.02      1350.7238    
    151100   311.63938     -218723.08      0             -218265.99      335.65537    
    151200   308.25277     -218716.21      0             -218264.09      467.37312    
    151300   311.29326     -218718.97      0             -218262.39     -1125.4068    
    151400   310.68577     -218720.66      0             -218264.97     -117.50909    
    151500   306.39008     -218722.19      0             -218272.8       145.34758    
    151600   305.06173     -218720.44      0             -218273.01     -832.83391    
    151700   310.72651     -218721.35      0             -218265.6       12.989021    
    151800   311.23677     -218718.16      0             -218261.67     -662.1098     
    151900   310.76386     -218718.2       0             -218262.4      -758.17002    
    152000   309.8496      -218721.09      0             -218266.63     -42.382841    
    152100   308.59548     -218723.65      0             -218271.02     -15.191723    
    152200   306.48685     -218724.58      0             -218275.05      116.98605    
    152300   309.10559     -218725.23      0             -218271.86     -137.51288    
    152400   308.77291     -218716.94      0             -218264.05     -927.06868    
    152500   308.98956     -218714.59      0             -218261.39     -366.79431    
    152600   307.4284      -218713.8       0             -218262.89     -68.126872    
    152700   306.8047      -218720.02      0             -218270.03      1.2016388    
    152800   306.51581     -218723.42      0             -218273.85     -629.76222    
    152900   311.97878     -218727.48      0             -218269.9      -1259.3448    
    153000   310.64212     -218721.56      0             -218265.93     -387.87446    
    153100   309.46422     -218719.12      0             -218265.23     -323.46771    
    153200   311.11651     -218720.55      0             -218264.23     -148.95841    
    153300   311.1671      -218719.13      0             -218262.74      611.25479    
    153400   312.85424     -218722.83      0             -218263.96      1309.3164    
    153500   309.16263     -218722.77      0             -218269.32      428.35268    
    153600   307.15682     -218723.34      0             -218272.83      761.88433    
    153700   308.51352     -218719.88      0             -218267.38     -131.16846    
    153800   311.51921     -218716.76      0             -218259.85     -1176.507     
    153900   309.30161     -218715.06      0             -218261.4       669.92036    
    154000   307.21033     -218717.12      0             -218266.53     -690.97982    
    154100   306.88704     -218719.88      0             -218269.76     -371.61393    
    154200   309.55588     -218720.41      0             -218266.38     -1325.8368    
    154300   314.60857     -218718.06      0             -218256.62     -299.358      
    154400   310.67972     -218715.03      0             -218259.36     -484.29838    
    154500   308.29103     -218717.76      0             -218265.58     -234.31092    
    154600   310.73331     -218723.64      0             -218267.88     -37.890807    
    154700   308.38375     -218719.48      0             -218267.16     -656.78101    
    154800   310.74049     -218719.38      0             -218263.61      128.89508    
    154900   313.49228     -218713.69      0             -218253.89     -744.00905    
    155000   313.94182     -218716.39      0             -218255.93     -863.65062    
    155100   307.61848     -218713.76      0             -218262.58     -337.82765    
    155200   308.80057     -218718.61      0             -218265.69     -384.4519     
    155300   307.48393     -218717.89      0             -218266.9      -123.06208    
    155400   308.91642     -218718.08      0             -218264.98     -665.60181    
    155500   312.19117     -218715.52      0             -218257.62     -498.69139    
    155600   312.49017     -218713.02      0             -218254.69      605.88493    
    155700   310.45455     -218716.93      0             -218261.58     -90.813714    
    155800   307.53972     -218718.17      0             -218267.1      -458.35908    
    155900   309.55303     -218720.71      0             -218266.68     -915.60709    
    156000   307.82348     -218715.63      0             -218264.14      593.54885    
    156100   314.91162     -218721.27      0             -218259.38     -481.33221    
    156200   312.72445     -218714.97      0             -218256.29      453.46081    
    156300   307.26769     -218712.29      0             -218261.61     -129.79236    
    156400   309.80397     -218722.68      0             -218268.28     -464.8159     
    156500   308.66533     -218721.77      0             -218269.04     -687.00634    
    156600   309.6434      -218718.24      0             -218264.08     -38.076601    
    156700   312.53824     -218716.3       0             -218257.89      205.88616    
    156800   313.45139     -218716.46      0             -218256.72      181.51181    
    156900   308.38382     -218720.94      0             -218268.63     -281.19124    
    157000   312.09332     -218728.87      0             -218271.12     -763.80276    
    157100   306.66923     -218718.27      0             -218268.47      280.69857    
    157200   309.45098     -218715.88      0             -218262        -700.59148    
    157300   313.18961     -218718.38      0             -218259.02     -345.7889     
    157400   311.03946     -218719.16      0             -218262.95     -1316.209     
    157500   306.48067     -218720.91      0             -218271.39     -849.88923    
    157600   308.58641     -218724.09      0             -218271.48     -493.84246    
    157700   306.9833      -218718.56      0             -218268.3      -232.54233    
    157800   312.79728     -218722.88      0             -218264.09     -442.96071    
    157900   310.84582     -218717.28      0             -218261.36     -770.28344    
    158000   310.37974     -218715.02      0             -218259.78     -416.41346    
    158100   311.30122     -218716.87      0             -218260.28      476.21426    
    158200   311.3591      -218723.2       0             -218266.53     -140.21396    
    158300   309.81728     -218725.32      0             -218270.91      339.40641    
    158400   310.56416     -218724.68      0             -218269.17      131.26762    
    158500   312.46192     -218718.85      0             -218260.56     -349.5894     
    158600   311.27781     -218715.78      0             -218259.22      213.19107    
    158700   311.43455     -218719.09      0             -218262.3       183.73546    
    158800   306.57539     -218715.94      0             -218266.28     -608.17233    
    158900   310.90841     -218723.28      0             -218267.27     -644.17272    
    159000   308.55137     -218717.08      0             -218264.52     -271.56155    
    159100   316.838       -218719.36      0             -218254.65      403.59928    
    159200   310.89072     -218710.72      0             -218254.73     -1141.1141    
    159300   311.91796     -218720.36      0             -218262.87     -484.50375    
    159400   310.32006     -218721.41      0             -218266.26     -710.67026    
    159500   308.08753     -218719.32      0             -218267.44     -144.22989    
    159600   311.20341     -218721.8       0             -218265.36      178.82336    
    159700   312.16875     -218716.13      0             -218258.26      486.47942    
    159800   312.68276     -218714.95      0             -218256.33     -121.3825     
    159900   310.15027     -218718.29      0             -218263.38      787.75213    
    160000   308.72382     -218718.81      0             -218266         1278.3989    
    160100   312.05054     -218723.71      0             -218266.02     -217.0157     
    160200   310.61586     -218720.35      0             -218264.76     -846.94864    
    160300   311.77481     -218718.49      0             -218261.21      388.48452    
    160400   310.51913     -218712.83      0             -218257.39     -358.90675    
    160500   312.83256     -218719.54      0             -218260.7      -635.95944    
    160600   308.29458     -218720.69      0             -218268.51     -685.32422    
    160700   308.41958     -218722.4       0             -218270.04     -137.69887    
    160800   307.6998      -218718.07      0             -218266.76      44.252751    
    160900   313.7757      -218719.04      0             -218258.82     -18.065502    
    161000   314.65867     -218720.93      0             -218259.41      1451.3493    
    161100   311.50212     -218720.39      0             -218263.51     -649.43442    
    161200   307.54937     -218718.97      0             -218267.88     -315.59676    
    161300   307.99624     -218719.93      0             -218268.19      727.19213    
    161400   305.00766     -218714.7       0             -218267.34     -808.02072    
    161500   309.65889     -218714.49      0             -218260.31     -1072.2741    
    161600   311.4649      -218714.24      0             -218257.41     -42.556532    
    161700   312.33755     -218720.38      0             -218262.27     -702.27221    
    161800   308.22355     -218720.51      0             -218268.43     -1291.27      
    161900   310.71024     -218723.99      0             -218268.27     -463.16031    
    162000   308.9016      -218719.22      0             -218266.15     -23.472868    
    162100   309.01982     -218716.12      0             -218262.88     -826.97615    
    162200   314.80844     -218714.92      0             -218253.19     -1091.0619    
    162300   313.07412     -218712.71      0             -218253.52     -1424.7219    
    162400   311.97642     -218718.78      0             -218261.2      -387.48299    
    162500   314.72513     -218725.94      0             -218264.33     -120.52439    
    162600   308.76627     -218719.88      0             -218267.01     -68.488022    
    162700   309.78307     -218724.26      0             -218269.9       134.3814     
    162800   312.10933     -218730.15      0             -218272.38     -72.070165    
    162900   307.65486     -218720.13      0             -218268.89     -402.06043    
    163000   311.94625     -218719.03      0             -218261.49     -645.98229    
    163100   314.13617     -218720.75      0             -218260.01      260.36458    
    163200   312.58786     -218723.92      0             -218265.45      307.19292    
    163300   309.41432     -218723.43      0             -218269.6       113.43649    
    163400   311.11517     -218726.28      0             -218269.96     -477.99261    
    163500   313.22073     -218717.72      0             -218258.31     -31.462355    
    163600   311.61814     -218713.18      0             -218256.12     -1132.9977    
    163700   307.9891      -218714.84      0             -218263.11      152.70911    
    163800   310.20068     -218723.24      0             -218268.26     -28.346191    
    163900   307.57893     -218721.92      0             -218270.79      389.40205    
    164000   310.03325     -218721.71      0             -218266.98      808.97278    
    164100   311.02615     -218715.64      0             -218259.45      1252.4674    
    164200   311.74722     -218716.55      0             -218259.3       335.50644    
    164300   312.02956     -218720.25      0             -218262.6       310.86701    
    164400   310.77837     -218720.26      0             -218264.43     -933.97814    
    164500   310.71405     -218721.71      0             -218265.98     -56.140013    
    164600   307.38303     -218718.72      0             -218267.88     -695.12098    
    164700   310.86549     -218721.58      0             -218265.63     -509.70201    
    164800   310.82637     -218714.02      0             -218258.12      59.438368    
    164900   311.86807     -218715.23      0             -218257.81      90.650383    
    165000   311.84344     -218722.35      0             -218264.96     -1013.6343    
    165100   307.5975      -218721.12      0             -218269.96      63.888699    
    165200   308.16311     -218720.55      0             -218268.57     -358.69193    
    165300   306.33661     -218714.09      0             -218264.78     -936.84879    
    165400   308.2092      -218713.44      0             -218261.39     -888.52948    
    165500   313.44236     -218718.8       0             -218259.07     -419.33193    
    165600   310.97931     -218716.09      0             -218259.97      377.43015    
    165700   307.6683      -218717.41      0             -218266.15     -269.4231     
    165800   311.25128     -218726.98      0             -218270.47     -903.58535    
    165900   307.81591     -218722.39      0             -218270.91     -252.63082    
    166000   308.73069     -218715.47      0             -218262.65      1169.9535    
    166100   311.0162      -218713.05      0             -218256.88     -64.685662    
    166200   310.12599     -218715.43      0             -218260.56     -663.64636    
    166300   306.4978      -218715.11      0             -218265.56     -562.98832    
    166400   308.5982      -218720.05      0             -218267.42      204.27687    
    166500   306.92404     -218716.23      0             -218266.06     -408.84625    
    166600   310.55275     -218720.63      0             -218265.14     -576.37668    
    166700   312.63904     -218723.27      0             -218264.72      644.11239    
    166800   308.23545     -218717.34      0             -218265.25     -507.27654    
    166900   309.97008     -218719.31      0             -218264.67     -1216.3982    
    167000   311.32955     -218718.88      0             -218262.25     -581.57782    
    167100   310.23015     -218714.02      0             -218259        -1091.3084    
    167200   313.17687     -218719.13      0             -218259.79     -1197.963     
    167300   309.95792     -218721.95      0             -218267.33      67.478138    
    167400   307.68155     -218721.24      0             -218269.96     -1405.211     
    167500   307.43106     -218718.26      0             -218267.35     -1339.0506    
    167600   309.55397     -218714.41      0             -218260.38     -691.58328    
    167700   310.68956     -218712.22      0             -218256.53     -477.41258    
    167800   307.47199     -218716.85      0             -218265.87     -646.04885    
    167900   307.06851     -218722.35      0             -218271.97     -618.52473    
    168000   311.07538     -218724.25      0             -218267.99     -1288.6516    
    168100   310.65761     -218717.94      0             -218262.29     -1400.7599    
    168200   312.10687     -218716.94      0             -218259.17     -199.9274     
    168300   309.33879     -218715.98      0             -218262.27     -140.68269    
    168400   307.72318     -218722.69      0             -218271.35      189.91559    
    168500   310.21739     -218728.01      0             -218273.01      590.11528    
    168600   307.45277     -218719.8       0             -218268.86      661.63534    
    168700   309.14429     -218718.74      0             -218265.31     -502.91572    
    168800   311.94971     -218720.78      0             -218263.24      265.92337    
    168900   312.40186     -218720.9       0             -218262.69     -561.22498    
    169000   307.02707     -218719.03      0             -218268.71     -157.30152    
    169100   308.05557     -218725.62      0             -218273.79      149.50728    
    169200   310.20361     -218726.46      0             -218271.48     -579.50414    
    169300   309.30017     -218717.68      0             -218264.03     -1279.5745    
    169400   310.88406     -218718.41      0             -218262.44      547.42828    
    169500   310.89495     -218718.88      0             -218262.89      598.94556    
    169600   309.18806     -218721.32      0             -218267.83      407.83823    
    169700   305.76691     -218725.03      0             -218276.56     -208.27587    
    169800   300.17108     -218715.71      0             -218275.44      222.10668    
    169900   309.59227     -218724.4       0             -218270.32     -130.11515    
    170000   306.77321     -218717.47      0             -218267.52     -656.58957    
    170100   313.39586     -218723.94      0             -218264.28     -1043.803     
    170200   312.76835     -218718.34      0             -218259.6      -58.145236    
    170300   314.03188     -218717.72      0             -218257.13     -1242.1732    
    170400   312.0254      -218721.9       0             -218264.25     -246.35614    
    170500   306.5809      -218720.55      0             -218270.88      57.899748    
    170600   312.47064     -218728.49      0             -218270.19     -1390.1116    
    170700   307.3274      -218714.35      0             -218263.59      316.52653    
    170800   311.81124     -218717.3       0             -218259.97     -422.0278     
    170900   311.4459      -218718.69      0             -218261.89     -784.15719    
    171000   309.95418     -218718.41      0             -218263.8       230.88698    
    171100   309.00053     -218718.99      0             -218265.78     -118.41197    
    171200   311.2512      -218722.5       0             -218265.98     -808.47367    
    171300   309.42146     -218719.17      0             -218265.34     -336.62943    
    171400   311.62702     -218722.23      0             -218265.17     -46.360346    
    171500   311.4245      -218722.11      0             -218265.33     -615.10559    
    171600   312.55724     -218724.08      0             -218265.65     -478.73077    
    171700   310.56208     -218722         0             -218266.5      -353.75557    
    171800   309.69627     -218720.43      0             -218266.19     -412.27438    
    171900   310.18023     -218720.59      0             -218265.64      15.784471    
    172000   308.66706     -218719.1       0             -218266.37     -859.97369    
    172100   311.50234     -218722.53      0             -218265.64     -190.28333    
    172200   311.85775     -218720.05      0             -218262.64      706.96132    
    172300   313.74936     -218718.91      0             -218258.73     -147.46135    
    172400   310.45823     -218716.87      0             -218261.52     -436.49655    
    172500   305.27266     -218717.87      0             -218270.12      388.95436    
    172600   305.44719     -218720.14      0             -218272.14      901.18446    
    172700   310.83819     -218724.57      0             -218268.66      348.57735    
    172800   310.93206     -218720.66      0             -218264.61      347.3373     
    172900   308.94778     -218718.05      0             -218264.92      358.90657    
    173000   310.56427     -218721.47      0             -218265.96     -1310.9913    
    173100   308.78327     -218719.87      0             -218266.97     -1548.2747    
    173200   309.73569     -218723.81      0             -218269.51     -502.74424    
    173300   308.99544     -218723.55      0             -218270.34     -1579.2225    
    173400   309.85713     -218721.1       0             -218266.62     -552.26366    
    173500   312.25612     -218718.73      0             -218260.74      360.00442    
    173600   311.08817     -218715.17      0             -218258.89     -542.33941    
    173700   310.48398     -218720.51      0             -218265.11     -124.10515    
    173800   307.16965     -218723.5       0             -218272.97     -531.54505    
    173900   308.70393     -218724.39      0             -218271.61      699.24396    
    174000   309.78903     -218719.49      0             -218265.12     -245.29991    
    174100   311.48328     -218719.05      0             -218262.19     -164.59302    
    174200   309.34996     -218717.73      0             -218264        -370.30765    
    174300   306.69152     -218719.26      0             -218269.43      456.42675    
    174400   305.855       -218727.61      0             -218279.01      594.23406    
    174500   306.85565     -218727.56      0             -218277.49     -586.64748    
    174600   307.65153     -218722.71      0             -218271.47     -750.90682    
    174700   310.33459     -218721.34      0             -218266.17     -1083.9518    
    174800   311.3493      -218718.93      0             -218262.27     -1104.3121    
    174900   312.3897      -218719.46      0             -218261.27      217.30031    
    175000   312.29351     -218724.94      0             -218266.89      235.76182    
    175100   306.78683     -218724.32      0             -218274.35      925.59994    
    175200   307.09187     -218723.16      0             -218272.74      507.67905    
    175300   312.53483     -218725.64      0             -218267.24     -155.66998    
    175400   309.29107     -218718.88      0             -218265.24     -259.19345    
    175500   307.66424     -218715.74      0             -218264.48     -397.05628    
    175600   309.98655     -218720.07      0             -218265.41     -361.52606    
    175700   308.65805     -218721.25      0             -218268.53      962.85388    
    175800   308.06235     -218723.5       0             -218271.66      971.41776    
    175900   308.00686     -218721.33      0             -218269.57     -158.98826    
    176000   311.83744     -218719.42      0             -218262.05     -224.75077    
    176100   313.19338     -218718.45      0             -218259.08     -211.89605    
    176200   311.10982     -218718.6       0             -218262.29     -173.29038    
    176300   309.88129     -218719.15      0             -218264.64      264.20899    
    176400   308.10804     -218717.76      0             -218265.85      458.29765    
    176500   312.66716     -218723.43      0             -218264.84      65.848654    
    176600   308.63423     -218717.49      0             -218264.81     -690.99296    
    176700   308.74014     -218719.29      0             -218266.46     -922.37187    
    176800   306.75902     -218720.2       0             -218270.27     -636.84589    
    176900   303.40983     -218716.11      0             -218271.1      -147.97286    
    177000   308.1236      -218718.35      0             -218266.42     -1230.5059    
    177100   309.93725     -218715         0             -218260.41     -808.45302    
    177200   312.41369     -218718.49      0             -218260.27      62.702642    
    177300   311.16971     -218722.28      0             -218265.89     -748.35194    
    177400   306.94449     -218723.84      0             -218273.64     -634.15311    
    177500   309.96195     -218726.23      0             -218271.6       165.91829    
    177600   313.6303      -218726.95      0             -218266.94     -420.89077    
    177700   313.93817     -218723.09      0             -218262.64     -536.46108    
    177800   310.38027     -218717.03      0             -218261.79      276.99688    
    177900   312.65747     -218722.93      0             -218264.35     -774.39034    
    178000   310.3534      -218727.58      0             -218272.38     -343.0402     
    178100   305.09391     -218720.89      0             -218273.41     -454.10152    
    178200   310.14753     -218722.09      0             -218267.19      205.54059    
    178300   310.18072     -218716.39      0             -218261.45      438.12764    
    178400   310.10036     -218717.12      0             -218262.29      399.3306     
    178500   308.46923     -218718.73      0             -218266.29     -1111.2974    
    178600   308.79271     -218721.64      0             -218268.73     -417.13414    
    178700   309.65058     -218721.55      0             -218267.38     -1028.1217    
    178800   308.79034     -218713.33      0             -218260.42     -399.70052    
    178900   313.97335     -218717.58      0             -218257.07      781.70196    
    179000   311.35878     -218718.68      0             -218262        -613.13798    
    179100   312.37244     -218726.35      0             -218268.19     -238.3178     
    179200   307.84949     -218721.35      0             -218269.82     -1092.0674    
    179300   307.18373     -218719.16      0             -218268.61      47.391997    
    179400   313.78956     -218724.62      0             -218264.38     -208.77746    
    179500   308.65896     -218713.8       0             -218261.08     -743.77542    
    179600   319.26044     -218717.55      0             -218249.29      154.35015    
    179700   315.45241     -218716.56      0             -218253.88     -403.09588    
    179800   313.15206     -218721.41      0             -218262.1      -472.87491    
    179900   307.68824     -218718.22      0             -218266.93      282.18396    
    180000   310.72413     -218724.9       0             -218269.16     -40.457941    
    180100   308.93917     -218720.92      0             -218267.8      -873.92062    
    180200   313.21831     -218718.64      0             -218259.24     -642.35938    
    180300   309.9403      -218712.38      0             -218257.79     -82.335488    
    180400   311.41943     -218719.69      0             -218262.93      265.84663    
    180500   308.53509     -218719.51      0             -218266.98      48.43151     
    180600   308.20585     -218719.24      0             -218267.19     -311.38503    
    180700   309.81996     -218720.23      0             -218265.81      865.14485    
    180800   312.59921     -218720.94      0             -218262.44      211.23076    
    180900   314.08297     -218718.1       0             -218257.43     -143.20556    
    181000   311.84052     -218714.27      0             -218256.88     -195.93997    
    181100   310.21058     -218720.29      0             -218265.3      -1381.0267    
    181200   309.84234     -218723.3       0             -218268.85     -717.34608    
    181300   308.23538     -218719.27      0             -218267.18     -568.4635     
    181400   312.27746     -218719.98      0             -218261.95     -518.55614    
    181500   311.2044      -218712.25      0             -218255.81      514.28388    
    181600   312.62054     -218718.09      0             -218259.56      1058.3261    
    181700   310.90796     -218720.4       0             -218264.39     -585.41966    
    181800   309.64447     -218719.33      0             -218265.17     -659.93425    
    181900   310.39498     -218721         0             -218265.74     -547.20726    
    182000   309.02824     -218720.15      0             -218266.89      90.157698    
    182100   309.14998     -218722.04      0             -218268.61      741.1648     
    182200   310.2185      -218722.26      0             -218267.26     -173.83563    
    182300   309.04905     -218715.81      0             -218262.52      191.24715    
    182400   314.71178     -218718.51      0             -218256.91     -351.17393    
    182500   312.66339     -218716.8       0             -218258.21     -566.98012    
    182600   310.76901     -218723.65      0             -218267.84      53.447341    
    182700   308.77709     -218721.9       0             -218269.01     -607.08981    
    182800   310.66204     -218721.88      0             -218266.23     -270.30409    
    182900   309.58464     -218715.54      0             -218261.47     -396.24495    
    183000   313.35437     -218715.79      0             -218256.19      436.5066     
    183100   313.90455     -218713.95      0             -218253.54      885.22884    
    183200   311.18149     -218719.3       0             -218262.89      611.5437     
    183300   308.15361     -218720.76      0             -218268.79      65.742771    
    183400   307.4584      -218720.64      0             -218269.69      444.79666    
    183500   310.8756      -218721.27      0             -218265.3      -304.54227    
    183600   313.47367     -218718.8       0             -218259.02      139.45445    
    183700   309.73084     -218714.21      0             -218259.93      131.81606    
    183800   308.91674     -218717.35      0             -218264.25     -155.03834    
    183900   306.94759     -218718.99      0             -218268.79     -1403.9252    
    184000   304.29444     -218719.22      0             -218272.91     -1819.6178    
    184100   306.19134     -218725.05      0             -218275.95     -529.68452    
    184200   308.84801     -218723.36      0             -218270.37      73.402369    
    184300   312.59633     -218721.44      0             -218262.95     -756.50284    
    184400   308.82397     -218713.22      0             -218260.26     -149.31111    
    184500   311.82763     -218720.11      0             -218262.75     -156.41872    
    184600   309.87781     -218724.53      0             -218270.03      71.26947     
    184700   309.34515     -218726.68      0             -218272.96      15.857111    
    184800   307.04304     -218720.01      0             -218269.67      1670.7994    
    184900   312.3237      -218724.52      0             -218266.43      217.7236     
    185000   309.72198     -218719.07      0             -218264.8      -706.76943    
    185100   312.35145     -218719.52      0             -218261.39     -589.42278    
    185200   308.86015     -218714         0             -218260.99      226.46915    
    185300   308.77501     -218718.66      0             -218265.77     -342.87367    
    185400   306.44209     -218720.46      0             -218271        -854.01149    
    185500   309.46538     -218723.19      0             -218269.29     -1063.3042    
    185600   310.18002     -218717.08      0             -218262.13      285.04935    
    185700   312.97325     -218718.46      0             -218259.42     -838.14169    
    185800   310.31144     -218716.96      0             -218261.82      291.37282    
    185900   307.36244     -218715.38      0             -218264.57     -503.74748    
    186000   310.46128     -218721.99      0             -218266.63     -1016.7778    
    186100   306.66797     -218718.17      0             -218268.37     -237.1101     
    186200   308.90573     -218718.14      0             -218265.06      110.71035    
    186300   312.9755      -218715.01      0             -218255.96      81.993428    
    186400   313.12353     -218717.03      0             -218257.77      319.24288    
    186500   311.53373     -218721.67      0             -218264.74      85.578105    
    186600   308.19439     -218719.83      0             -218267.8      -744.95167    
    186700   307.52031     -218718.29      0             -218267.25     -1162.0749    
    186800   307.71444     -218715.69      0             -218264.37     -1159.5307    
    186900   314.32357     -218718.13      0             -218257.11     -1475.4265    
    187000   316.578       -218716.92      0             -218252.59     -380.40095    
    187100   311.54837     -218717.37      0             -218260.42     -1430.0435    
    187200   310.1831      -218719.16      0             -218264.21      94.227276    
    187300   310.65126     -218722.31      0             -218266.68     -147.63668    
    187400   310.13662     -218722.85      0             -218267.97      519.40092    
    187500   311.0834      -218723.42      0             -218267.14      302.01814    
    187600   314.10387     -218724.19      0             -218263.49      636.00023    
    187700   313.89802     -218720.23      0             -218259.83     -323.69513    
    187800   312.38804     -218717.36      0             -218259.17     -494.51854    
    187900   309.00365     -218719.39      0             -218266.17     -158.85619    
    188000   307.30396     -218721.89      0             -218271.16     -301.86031    
    188100   307.85814     -218720.21      0             -218268.67     -59.171015    
    188200   308.47308     -218716.66      0             -218264.22     -112.10473    
    188300   307.78187     -218714.53      0             -218263.1      -544.58008    
    188400   310.5769      -218719.17      0             -218263.64     -68.630342    
    188500   311.73066     -218722.88      0             -218265.66     -346.16502    
    188600   307.16728     -218719.63      0             -218269.11      307.33446    
    188700   309.12313     -218724.65      0             -218271.25      946.11947    
    188800   309.58099     -218725.49      0             -218271.42      106.75501    
    188900   308.48044     -218717.64      0             -218265.19      226.20759    
    189000   312.11921     -218718.32      0             -218260.53     -427.9703     
    189100   313.91217     -218721.98      0             -218261.56     -284.60989    
    189200   308.3782      -218722.18      0             -218269.88      265.26056    
    189300   307.90414     -218722.87      0             -218271.26     -179.16623    
    189400   308.32252     -218720.81      0             -218268.59     -443.8055     
    189500   310.531       -218720.68      0             -218265.22     -44.197252    
    189600   310.31293     -218717.6       0             -218262.46     -673.599      
    189700   311.56204     -218716.61      0             -218259.64      583.43982    
    189800   312.88552     -218717.6       0             -218258.68      833.19816    
    189900   309.35332     -218717.66      0             -218263.93     -280.3986     
    190000   309.2343      -218723.02      0             -218269.46     -140.32857    
    190100   307.66331     -218722.21      0             -218270.95     -586.56896    
    190200   309.25709     -218718.44      0             -218264.85     -172.80385    
    190300   313.21184     -218718.12      0             -218258.73      376.13223    
    190400   313.27041     -218719.75      0             -218260.27      199.41138    
    190500   310.3835      -218720.62      0             -218265.38     -386.5967     
    190600   310.65928     -218723.35      0             -218267.7      -110.14972    
    190700   311.2795      -218723.53      0             -218266.97     -427.19531    
    190800   310.41798     -218721.24      0             -218265.95     -191.32091    
    190900   308.1989      -218717.55      0             -218265.51     -1084.0119    
    191000   309.91852     -218719.47      0             -218264.91      35.883667    
    191100   312.05514     -218722.41      0             -218264.72      28.074286    
    191200   310.98884     -218718.37      0             -218262.24      730.79258    
    191300   310.80559     -218718.26      0             -218262.4       641.44123    
    191400   309.79578     -218721.4       0             -218267.02      325.54019    
    191500   311.35675     -218727.67      0             -218271         730.15798    
    191600   307.66588     -218722.43      0             -218271.17     -1012.9597    
    191700   312.01358     -218719.57      0             -218261.94     -151.82193    
    191800   313.36661     -218717.79      0             -218258.17     -510.18905    
    191900   311.4469      -218718.43      0             -218261.62     -1382.1356    
    192000   310.88766     -218723.02      0             -218267.04     -857.68746    
    192100   307.32752     -218720.36      0             -218269.6      -599.51413    
    192200   311.0095      -218723.67      0             -218267.51     -511.06       
    192300   310.56442     -218722.33      0             -218266.82     -136.62589    
    192400   309.51398     -218719.18      0             -218265.21      251.40376    
    192500   311.63138     -218719.83      0             -218262.76      602.90494    
    192600   310.27068     -218716.42      0             -218261.34      562.94821    
    192700   307.84449     -218715.97      0             -218264.45      342.24937    
    192800   306.27133     -218720.38      0             -218271.17     -104.6496     
    192900   306.45357     -218721.02      0             -218271.54     -614.6857     
    193000   309.90437     -218718.95      0             -218264.41      373.80305    
    193100   314.01669     -218721.14      0             -218260.57     -805.88798    
    193200   313.04955     -218721.3       0             -218262.14      281.39912    
    193300   308.66135     -218718.38      0             -218265.67     -165.99939    
    193400   308.83824     -218722.79      0             -218269.81     -683.74389    
    193500   307.59029     -218725.22      0             -218274.08     -1137.5028    
    193600   308.85481     -218727.62      0             -218274.62     -172.22039    
    193700   308.89574     -218719.54      0             -218266.48      327.45239    
    193800   311.35232     -218718.6       0             -218261.94     -665.74475    
    193900   313.09908     -218720.72      0             -218261.49      34.911042    
    194000   307.25254     -218717.18      0             -218266.53     -1400.661     
    194100   307.29048     -218723.72      0             -218273.01     -682.34101    
    194200   308.22817     -218725.54      0             -218273.46      261.6628     
    194300   310.97477     -218718.06      0             -218261.95      138.03891    
    194400   310.64937     -218714.62      0             -218258.99     -416.27046    
    194500   311.53352     -218719.29      0             -218262.36     -806.47143    
    194600   308.03215     -218719.75      0             -218267.95     -183.849      
    194700   306.7115      -218720.08      0             -218270.22      127.11333    
    194800   309.09741     -218718.93      0             -218265.57      971.11157    
    194900   310.76814     -218713.53      0             -218257.72     -706.59472    
    195000   313.80722     -218719.26      0             -218258.99      571.31754    
    195100   309.77658     -218719.35      0             -218265        -418.97336    
    195200   307.8607      -218720.39      0             -218268.85     -15.408613    
    195300   311.00632     -218724.29      0             -218268.14     -402.12272    
    195400   308.55252     -218718.29      0             -218265.73     -632.3618     
    195500   307.30542     -218714.64      0             -218263.91     -751.62304    
    195600   311.84136     -218720.81      0             -218263.42     -557.34136    
    195700   311.78121     -218721.55      0             -218264.25     -210.7245     
    195800   307.58962     -218716.36      0             -218265.21     -71.614806    
    195900   306.89636     -218715.89      0             -218265.76     -855.72796    
    196000   312.17274     -218722.03      0             -218264.16      740.70676    
    196100   308.70615     -218713.87      0             -218261.09      0.63755585   
    196200   313.39055     -218716.95      0             -218257.3      -96.474418    
    196300   310.07178     -218714.53      0             -218259.75      679.98723    
    196400   306.21391     -218717.15      0             -218268.02      1024.7435    
    196500   310.14706     -218724.4       0             -218269.5      -252.58634    
    196600   311.86882     -218724.09      0             -218266.66      77.091452    
    196700   311.89619     -218718.86      0             -218261.4      -273.62293    
    196800   318.05642     -218719.55      0             -218253.05      288.71369    
    196900   315.8319      -218711.82      0             -218248.59     -1168.636     
    197000   312.61286     -218718.12      0             -218259.61      242.2181     
    197100   311.24922     -218720.45      0             -218263.94      332.36856    
    197200   310.58121     -218722.66      0             -218267.12     -507.9098     
    197300   308.73164     -218721.84      0             -218269.02     -1650.7241    
    197400   310.98271     -218722.49      0             -218266.37     -1624.5977    
    197500   311.47878     -218717.38      0             -218260.53     -425.93379    
    197600   313.14755     -218715.55      0             -218256.25     -1364.9904    
    197700   307.22122     -218714.28      0             -218263.68     -1027.4582    
    197800   308.05158     -218722.4       0             -218270.57      157.28074    
    197900   309.51469     -218722.97      0             -218269         349.46009    
    198000   311.53255     -218720.47      0             -218263.54     -1326.1496    
    198100   310.35446     -218715.12      0             -218259.92      228.72816    
    198200   309.45669     -218714.55      0             -218260.66      687.39563    
    198300   311.60619     -218728.13      0             -218271.09      221.85646    
    198400   307.28286     -218723.25      0             -218272.55     -908.97381    
    198500   306.83764     -218716.71      0             -218266.67     -1430.8254    
    198600   311.32083     -218717.49      0             -218260.87     -1947.5278    
    198700   311.03827     -218717.44      0             -218261.24     -827.61639    
    198800   312.01903     -218722.54      0             -218264.9      -125.50052    
    198900   308.60514     -218722.47      0             -218269.83     -1025.4714    
    199000   304.75852     -218727.3       0             -218280.31     -1232.1251    
    199100   309.23366     -218732.51      0             -218278.95      264.29851    
    199200   306.52975     -218721.65      0             -218272.06     -788.58102    
    199300   310.52793     -218721.98      0             -218266.53     -78.965355    
    199400   311.35343     -218719.41      0             -218262.74     -3.0339742    
    199500   311.00012     -218717.47      0             -218261.32     -522.30144    
    199600   309.26045     -218720.41      0             -218266.81      313.02273    
    199700   306.10524     -218722.14      0             -218273.17     -398.42772    
    199800   306.71255     -218721.46      0             -218271.6      -484.90291    
    199900   312.57914     -218723         0             -218264.54     -327.68845    
    200000   308.43943     -218715.22      0             -218262.83     -438.7594     
    200100   307.02128     -218715.41      0             -218265.1      -109.67322    
    200200   307.46345     -218717.7       0             -218266.74     -599.39383    
    200300   308.79266     -218720.92      0             -218268.01     -547.13021    
    200400   308.49162     -218721.6       0             -218269.13     -786.69044    
    200500   307.1335      -218714.99      0             -218264.52     -482.57611    
    200600   311.71143     -218716.47      0             -218259.28      842.89054    
    200700   313.14642     -218719.13      0             -218259.83      289.17627    
    200800   310.6076      -218724.32      0             -218268.75      986.95481    
    200900   305.45251     -218721.18      0             -218273.17      166.96278    
    201000   307.81888     -218720.12      0             -218268.64     -1021.4872    
    201100   310.99907     -218720.17      0             -218264.02     -838.11414    
    201200   311.93738     -218719.2       0             -218261.68      613.2        
    201300   309.76753     -218714.68      0             -218260.34     -135.29687    
    201400   313.07988     -218719.01      0             -218259.81     -257.26604    
    201500   309.19171     -218718.64      0             -218265.15     -1637.7504    
    201600   305.8038      -218718.03      0             -218269.5      -1456.9338    
    201700   309.96373     -218722.99      0             -218268.36      386.94456    
    201800   307.98418     -218715.95      0             -218264.23      781.71524    
    201900   311.32183     -218713.48      0             -218256.86      204.80906    
    202000   311.4033      -218714.97      0             -218258.23     -154.84963    
    202100   308.99806     -218718.85      0             -218265.64      861.03634    
    202200   309.53733     -218720.2       0             -218266.19     -400.62276    
    202300   309.47607     -218719.06      0             -218265.15     -639.00629    
    202400   310.4632      -218720.14      0             -218264.78     -1343.1567    
    202500   308.12378     -218716.21      0             -218264.28     -604.00849    
    202600   308.18464     -218714.21      0             -218262.2      -1016.0776    
    202700   311.03082     -218716.93      0             -218260.73     -722.44867    
    202800   311.53369     -218721.47      0             -218264.54      686.5481     
    202900   309.04814     -218724.59      0             -218271.3      -40.378713    
    203000   307.62139     -218723.65      0             -218272.46     -821.60563    
    203100   309.65894     -218719.69      0             -218265.5      -1038.8528    
    203200   310.69462     -218713.82      0             -218258.12     -287.88272    
    203300   310.60813     -218716.05      0             -218260.47     -287.81743    
    203400   311.26204     -218722.53      0             -218266         143.89564    
    203500   307.36501     -218720.29      0             -218269.48     -70.142419    
    203600   310.28614     -218724.32      0             -218269.22     -114.71498    
    203700   311.02375     -218715.9       0             -218259.72      46.091285    
    203800   312.01492     -218713.33      0             -218255.7      -306.01437    
    203900   314.2418      -218721.1       0             -218260.2      -117.6668     
    204000   308.62203     -218719.21      0             -218266.55     -903.29626    
    204100   310.43831     -218722.08      0             -218266.75      120.01174    
    204200   309.20084     -218718.19      0             -218264.68     -130.76311    
    204300   311.81577     -218716.99      0             -218259.65      614.27183    
    204400   311.47205     -218709.63      0             -218252.79     -114.70749    
    204500   312.21047     -218714.26      0             -218256.34      966.66095    
    204600   311.66732     -218722.7       0             -218265.57      301.77196    
    204700   307.94921     -218719.91      0             -218268.23      657.58041    
    204800   310.43625     -218723.52      0             -218268.19      687.17463    
    204900   310.1468      -218719.07      0             -218264.18      1230.8545    
    205000   312.50881     -218716.18      0             -218257.82      295.57027    
    205100   309.63253     -218712.49      0             -218258.35     -124.61275    
    205200   306.51438     -218718.16      0             -218268.59     -935.11162    
    205300   307.94653     -218722.47      0             -218270.8       365.61184    
    205400   309.22597     -218720.47      0             -218266.93      697.45779    
    205500   310.24674     -218717.38      0             -218262.33     -376.5942     
    205600   314.42422     -218720.88      0             -218259.71     -533.55991    
    205700   312.30035     -218715.87      0             -218257.81     -285.22958    
    205800   311.46245     -218718.9       0             -218262.08      262.12113    
    205900   308.78402     -218722.02      0             -218269.13      845.50602    
    206000   308.41576     -218723.11      0             -218270.75      318.14843    
    206100   308.06245     -218719.09      0             -218267.25     -473.72431    
    206200   311.99071     -218716.09      0             -218258.49     -388.14438    
    206300   311.76103     -218715.58      0             -218258.31      252.48594    
    206400   311.30741     -218719.54      0             -218262.94     -209.9574     
    206500   310.90653     -218721.74      0             -218265.73     -134.08234    
    206600   311.60778     -218723.25      0             -218266.21     -674.17215    
    206700   309.06938     -218718.64      0             -218265.32     -936.04034    
    206800   313.81739     -218717.74      0             -218257.46     -69.241589    
    206900   310.97351     -218709.57      0             -218253.46     -1295.8239    
    207000   311.87139     -218717.85      0             -218260.43      85.168624    
    207100   310.87977     -218720.59      0             -218264.62      232.26765    
    207200   308.35641     -218719.14      0             -218266.87     -268.55936    
    207300   312.88524     -218726.4       0             -218267.49     -1057.8865    
    207400   311.9676      -218722.34      0             -218264.77      327.648      
    207500   311.97019     -218715.4       0             -218257.83     -553.76784    
    207600   313.91535     -218718.17      0             -218257.75     -380.91954    
    207700   309.52951     -218719.49      0             -218265.5      -744.78431    
    207800   308.06874     -218720.29      0             -218268.44     -7.2889775    
    207900   310.85967     -218722.67      0             -218266.73      1213.9129    
    208000   309.58542     -218718.54      0             -218264.47     -653.84217    
    208100   309.91834     -218716.54      0             -218261.98      590.53043    
    208200   316.32856     -218720.2       0             -218256.23      139.33102    
    208300   313.12617     -218717.21      0             -218257.94      210.88806    
    208400   310.41418     -218720.06      0             -218264.77     -118.79865    
    208500   311.08501     -218724.27      0             -218268        -1117.6315    
    208600   311.32768     -218724.93      0             -218268.3      -967.07877    
    208700   310.45319     -218721.6       0             -218266.25      59.323878    
    208800   311.45854     -218712.93      0             -218256.11     -84.160806    
    208900   311.10117     -218711.34      0             -218255.04      282.39107    
    209000   310.733       -218716.32      0             -218260.56      433.63963    
    209100   309.98559     -218720.2       0             -218265.54     -108.82281    
    209200   309.23719     -218721.39      0             -218267.83     -62.53415     
    209300   309.69832     -218723.22      0             -218268.99     -458.45998    
    209400   311.54342     -218721.68      0             -218264.74     -514.62911    
    209500   311.66106     -218714.35      0             -218257.23     -612.60528    
    209600   312.06333     -218717.02      0             -218259.31     -299.98021    
    209700   310.26665     -218721.5       0             -218266.43     -207.8597     
    209800   308.43752     -218720.21      0             -218267.82     -244.22083    
    209900   310.52298     -218722.65      0             -218267.2       237.5285     
    210000   312.08945     -218721.51      0             -218263.77      899.9585     
    210100   310.78804     -218710.36      0             -218254.52     -380.8801     
    210200   313.77766     -218714.31      0             -218254.09      388.05636    
    210300   309.47628     -218714.25      0             -218260.33     -539.58192    
    210400   314.80949     -218725.68      0             -218263.95      195.45738    
    210500   308.26149     -218719.1       0             -218266.97     -201.17729    
    210600   310.44419     -218723.98      0             -218268.64      115.13447    
    210700   312.90074     -218725.25      0             -218266.32      19.020633    
    210800   311.88848     -218717.63      0             -218260.18     -151.79389    
    210900   310.68857     -218714.25      0             -218258.56     -704.6726     
    211000   308.39983     -218717.43      0             -218265.09     -161.07654    
    211100   308.66184     -218723.38      0             -218270.66      333.05219    
    211200   309.12419     -218723.34      0             -218269.95      1473.4011    
    211300   310.7436      -218721.12      0             -218265.35      16.531382    
    211400   311.09413     -218718.16      0             -218261.88     -612.61596    
    211500   311.88637     -218719.64      0             -218262.19     -1311.882     
    211600   309.74031     -218727.61      0             -218273.31     -1236.9778    
    211700   308.53732     -218727.14      0             -218274.6      -69.79174     
    211800   308.45331     -218720.27      0             -218267.85     -321.82848    
    211900   310.63073     -218718.58      0             -218262.97     -45.101298    
    212000   310.23431     -218716.78      0             -218261.76     -160.24879    
    212100   307.96927     -218717.61      0             -218265.91     -247.83573    
    212200   305.65635     -218723.31      0             -218275         418.52747    
    212300   306.77873     -218723.62      0             -218273.66      792.21425    
    212400   307.70005     -218719.96      0             -218268.65      563.02657    
    212500   309.98274     -218718.71      0             -218264.05      1384.1213    
    212600   310.70292     -218718.05      0             -218262.34     -27.906764    
    212700   310.6518      -218719.79      0             -218264.15      123.22296    
    212800   308.79542     -218726.43      0             -218273.52      1081.0841    
    212900   307.54807     -218724.5       0             -218273.41      1450.5183    
    213000   304.73824     -218714.51      0             -218267.54      701.54874    
    213100   312.05741     -218720.53      0             -218262.83      798.78282    
    213200   315.28077     -218725.04      0             -218262.61      932.62716    
    213300   307.13728     -218715.73      0             -218265.24     -975.02127    
    213400   310.94871     -218723.66      0             -218267.59     -31.231824    
    213500   306.28677     -218726         0             -218276.76      292.40398    
    213600   307.04615     -218728.72      0             -218278.37     -145.37716    
    213700   309.05279     -218724.11      0             -218270.82      1489.0488    
    213800   307.90851     -218717.91      0             -218266.29     -34.829145    
    213900   310.64633     -218720.58      0             -218264.95      431.77499    
    214000   312.27519     -218722.01      0             -218264         708.09966    
    214100   310.0865      -218719.12      0             -218264.31      188.9473     
    214200   310.46395     -218722.72      0             -218267.36     -788.41459    
    214300   307.8765      -218722.35      0             -218270.79     -197.30178    
    214400   308.28042     -218721.9       0             -218269.74     -673.04583    
    214500   311.95769     -218719.16      0             -218261.61     -1385.4436    
    214600   316.06255     -218722.42      0             -218258.85      507.22452    
    214700   310.8352      -218718.53      0             -218262.63     -484.34562    
    214800   310.72152     -218721.86      0             -218266.12     -596.19859    
    214900   309.04625     -218720.41      0             -218267.12     -834.90571    
    215000   305.80763     -218714.52      0             -218265.99      554.16402    
    215100   309.32916     -218719.1       0             -218265.4       66.814467    
    215200   309.76772     -218719.98      0             -218265.64      888.40522    
    215300   308.98757     -218719.85      0             -218266.65      1084.0206    
    215400   309.85026     -218722.99      0             -218268.52      728.62151    
    215500   309.07007     -218722.33      0             -218269.02      786.71694    
    215600   308.46741     -218721.78      0             -218269.35      423.6837     
    215700   309.53132     -218719.02      0             -218265.02      11.590137    
    215800   311.4792      -218716.27      0             -218259.42     -209.80928    
    215900   311.44393     -218716.53      0             -218259.73     -453.35795    
    216000   307.04075     -218719.86      0             -218269.52     -505.06074    
    216100   307.92927     -218723.2       0             -218271.55     -635.58342    
    216200   310.30583     -218723.45      0             -218268.32      84.787955    
    216300   313.84283     -218723.09      0             -218262.77     -116.2535     
    216400   312.76996     -218720.22      0             -218261.48     -186.788      
    216500   312.426       -218721.69      0             -218263.45      154.47432    
    216600   313.50741     -218725.23      0             -218265.4       706.98124    
    216700   307.73655     -218718.11      0             -218266.74      1038.7492    
    216800   308.77905     -218720.19      0             -218267.3       963.74313    
    216900   309.20149     -218721.02      0             -218267.51     -30.938776    
    217000   308.78298     -218717.71      0             -218264.81     -108.08256    
    217100   310.78624     -218717.26      0             -218261.43     -248.10079    
    217200   311.48649     -218718.13      0             -218261.27     -747.78899    
    217300   307.41352     -218718.71      0             -218267.82     -583.75463    
    217400   304.55787     -218718.87      0             -218272.18     -652.58346    
    217500   307.5108      -218721.21      0             -218270.18     -658.28194    
    217600   310.94864     -218718.04      0             -218261.97      911.12419    
    217700   312.68404     -218719.36      0             -218260.74     -259.1975     
    217800   309.81379     -218719.25      0             -218264.84     -131.43499    
    217900   309.34485     -218722.58      0             -218268.86      379.55062    
    218000   307.84544     -218721.85      0             -218270.33      386.75546    
    218100   308.73607     -218716.13      0             -218263.3       1160.3046    
    218200   316.34084     -218721.58      0             -218257.6      -379.96195    
    218300   311.51349     -218718.25      0             -218261.35     -1523.4369    
    218400   312.40263     -218724.88      0             -218266.68     -201.94272    
    218500   311.37943     -218725.63      0             -218268.92      226.53183    
    218600   310.18081     -218722.95      0             -218268.01      469.40613    
    218700   310.88312     -218721.01      0             -218265.04      366.7313     
    218800   311.97729     -218719.15      0             -218261.57      250.69746    
    218900   309.01342     -218717.13      0             -218263.89     -998.74992    
    219000   306.93763     -218723.87      0             -218273.68     -431.38878    
    219100   307.12699     -218724.39      0             -218273.92     -366.99051    
    219200   306.31787     -218716.02      0             -218266.74     -987.65622    
    219300   310.94581     -218718.68      0             -218262.61      323.18501    
    219400   309.18769     -218717.47      0             -218263.98      896.50464    
    219500   312.0862      -218724.88      0             -218267.14      124.47706    
    219600   309.62613     -218728.81      0             -218274.68     -400.19208    
    219700   309.47174     -218732.82      0             -218278.91      573.50769    
    219800   311.60382     -218725.26      0             -218268.22      434.19774    
    219900   315.37929     -218726.17      0             -218263.6      -732.40829    
    220000   309.70937     -218717         0             -218262.75     -1245.1568    
    220100   306.37176     -218713.29      0             -218263.93     -801.38188    
    220200   308.48472     -218719.29      0             -218266.83     -713.43395    
    220300   310.06507     -218726         0             -218271.23     -955.29377    
    220400   308.96672     -218726.45      0             -218273.28     -788.37496    
    220500   305.85551     -218716.39      0             -218267.78      310.00767    
    220600   312.20924     -218718.45      0             -218260.53      410.90818    
    220700   308.94106     -218714.11      0             -218260.99     -582.74544    
    220800   308.23877     -218718.45      0             -218266.35      125.73204    
    220900   307.98707     -218722.81      0             -218271.08      938.78527    
    221000   307.86018     -218723.59      0             -218272.05      675.34007    
    221100   310.41534     -218718.39      0             -218263.1       95.037235    
    221200   311.4971      -218714.26      0             -218257.38     -592.93267    
    221300   310.93752     -218716.42      0             -218260.36     -56.358142    
    221400   312.30923     -218725.66      0             -218267.59      334.56598    
    221500   307.11566     -218721.23      0             -218270.77      143.8779     
    221600   310.28222     -218723.01      0             -218267.92      646.46533    
    221700   307.30741     -218713.12      0             -218262.39     -425.64662    
    221800   314.26612     -218714.27      0             -218253.33      1774.3649    
    221900   311.41182     -218712.33      0             -218255.58      60.46918     
    222000   312.08059     -218718.21      0             -218260.48     -735.73982    
    222100   311.54259     -218721.51      0             -218264.57     -220.61503    
    222200   311.7688      -218727.12      0             -218269.85      681.73118    
    222300   309.79506     -218725.16      0             -218270.78      855.38607    
    222400   309.55534     -218720.45      0             -218266.42     -57.126112    
    222500   314.42452     -218720.2       0             -218259.03     -15.202979    
    222600   313.19259     -218718.7       0             -218259.34      408.4684     
    222700   311.71579     -218722.92      0             -218265.72      81.742216    
    222800   312.45277     -218728.03      0             -218269.75     -745.54715    
    222900   311.55365     -218726.16      0             -218269.2      -500.4518     
    223000   307.26431     -218717.19      0             -218266.52     -606.17671    
    223100   312.35115     -218719.97      0             -218261.84     -196.15744    
    223200   313.33794     -218719.68      0             -218260.1       191.49557    
    223300   311.31175     -218722.71      0             -218266.11      557.07264    
    223400   308.30609     -218724.76      0             -218272.57      138.29495    
    223500   309.52163     -218725.51      0             -218271.53     -68.634052    
    223600   311.99813     -218722.11      0             -218264.5      -11.298894    
    223700   312.20761     -218718.34      0             -218260.42     -202.81923    
    223800   316.26308     -218725.04      0             -218261.17     -702.47868    
    223900   310.13761     -218720.42      0             -218265.54     -441.16822    
    224000   304.85533     -218714.71      0             -218267.57     -163.03606    
    224100   310.32694     -218721.84      0             -218266.68     -270.31498    
    224200   307.51229     -218720.53      0             -218269.5      -212.27772    
    224300   306.22922     -218720.8       0             -218271.65      249.99438    
    224400   311.20318     -218725.34      0             -218268.9       291.61108    
    224500   313.93707     -218723.97      0             -218263.51     -235.51519    
    224600   312.17994     -218718.37      0             -218260.49      132.62531    
    224700   310.58076     -218718.76      0             -218263.23      722.41577    
    224800   305.10623     -218720.66      0             -218273.16      321.57477    
    224900   310.606       -218729.13      0             -218273.56      617.69488    
    225000   307.94246     -218719.34      0             -218267.68     -439.48326    
    225100   311.09539     -218719.63      0             -218263.34      281.80192    
    225200   309.84222     -218718.72      0             -218264.27     -168.16479    
    225300   312.09574     -218723.25      0             -218265.5      -586.45396    
    225400   312.4178      -218724.6       0             -218266.37      190.97113    
    225500   305.56561     -218715.56      0             -218267.39     -940.82394    
    225600   308.61689     -218724.18      0             -218271.53     -246.50585    
    225700   308.31342     -218726.85      0             -218274.64      938.44739    
    225800   311.43733     -218726.95      0             -218270.16      676.9801     
    225900   311.63896     -218720.68      0             -218263.6       749.39033    
    226000   311.95203     -218719.71      0             -218262.17     -377.88869    
    226100   309.72392     -218720.3       0             -218266.02     -389.8084     
    226200   311.11339     -218730.36      0             -218274.04      296.08009    
    226300   308.59188     -218725.83      0             -218273.21     -764.38581    
    226400   310.19813     -218724.39      0             -218269.42     -1127.4089    
    226500   310.77528     -218720.8       0             -218264.98      578.55125    
    226600   312.26961     -218720.61      0             -218262.6       150.62661    
    226700   310.58898     -218719.67      0             -218264.13     -882.77258    
    226800   312.62104     -218724.55      0             -218266.02      187.99961    
    226900   310.97252     -218723.41      0             -218267.3      -65.494863    
    227000   310.58459     -218724.48      0             -218268.94      299.99326    
    227100   307.41161     -218722.43      0             -218271.54      483.08323    
    227200   311.44422     -218730.46      0             -218273.66     -726.00158    
    227300   309.66832     -218723.21      0             -218269.02     -214.89035    
    227400   312.07997     -218720.35      0             -218262.62     -46.679133    
    227500   313.68515     -218721.93      0             -218261.84      98.8758      
    227600   311.17913     -218723.25      0             -218266.84     -699.32424    
    227700   306.66401     -218724.58      0             -218274.79     -157.70046    
    227800   307.39643     -218724.13      0             -218273.27     -1131.9537    
    227900   309.86226     -218722.66      0             -218268.18     -374.85926    
    228000   310.01327     -218718.88      0             -218264.18     -838.79633    
    228100   311.55431     -218719.59      0             -218262.63     -1387.1813    
    228200   308.34494     -218719.64      0             -218267.39      58.371973    
    228300   309.94047     -218730.14      0             -218275.55      141.56689    
    228400   306.66567     -218724.61      0             -218274.82      500.75359    
    228500   306.3026      -218718.19      0             -218268.93      250.23266    
    228600   309.22528     -218719.43      0             -218265.88      273.49901    
    228700   308.01362     -218717.55      0             -218265.78     -682.44989    
    228800   309.54645     -218720.19      0             -218266.18      240.11563    
    228900   309.52029     -218722.15      0             -218268.17      389.65305    
    229000   307.2565      -218720.91      0             -218270.25     -122.29393    
    229100   306.77602     -218718.57      0             -218268.62     -885.12116    
    229200   312.87859     -218721.36      0             -218262.46      371.13525    
    229300   314.00052     -218721         0             -218260.45      643.70024    
    229400   313.88128     -218727.37      0             -218266.99     -594.09959    
    229500   307.54503     -218724.72      0             -218273.64     -20.384633    
    229600   309.31827     -218724.74      0             -218271.05      900.68562    
    229700   309.82703     -218720.02      0             -218265.59      199.31535    
    229800   312.72459     -218721.7       0             -218263.02     -222.93797    
    229900   311.21734     -218721.43      0             -218264.96     -263.88445    
    230000   307.76149     -218718         0             -218266.61      437.93766    
    230100   308.19896     -218719.94      0             -218267.9       669.09888    
    230200   308.85202     -218720.28      0             -218267.28      777.24826    
    230300   313.22916     -218726.3       0             -218266.88      715.71892    
    230400   311.347       -218723.87      0             -218267.21      542.22117    
    230500   309.01447     -218719.9       0             -218266.66     -47.407709    
    230600   313.22435     -218724.2       0             -218264.79     -475.27482    
    230700   311.18868     -218714.52      0             -218258.1      -612.39773    
    230800   310.12551     -218712.96      0             -218258.09     -95.786989    
    230900   310.91952     -218722.08      0             -218266.05     -174.00947    
    231000   309.89723     -218723.41      0             -218268.88     -458.95986    
    231100   308.38062     -218720.66      0             -218268.35     -939.07949    
    231200   308.73472     -218719.67      0             -218266.84      6.5312597    
    231300   313.9794      -218718.37      0             -218257.85     -646.07181    
    231400   312.84705     -218714.94      0             -218256.08      1405.3995    
    231500   312.47639     -218720.41      0             -218262.1       43.846818    
    231600   310.81076     -218721.13      0             -218265.26      1648.6406    
    231700   310.92812     -218723.27      0             -218267.23      518.52253    
    231800   304.60111     -218715.89      0             -218269.13     -701.76883    
    231900   307.86139     -218720.9       0             -218269.36      288.91151    
    232000   310.79885     -218720.87      0             -218265.02      117.18192    
    232100   311.44397     -218717         0             -218260.2       717.81642    
    232200   309.50065     -218714.56      0             -218260.61      831.79755    
    232300   308.80444     -218720.85      0             -218267.93     -475.80593    
    232400   309.97857     -218727.75      0             -218273.09      715.57951    
    232500   308.23138     -218723.24      0             -218271.15      1334.1936    
    232600   309.9907      -218721.1       0             -218266.43      522.08249    
    232700   311.21876     -218718.74      0             -218262.27      640.93559    
    232800   310.7629      -218718.12      0             -218262.31      241.41645    
    232900   310.61868     -218719.48      0             -218263.89     -75.509885    
    233000   308.07363     -218718.31      0             -218266.45     -810.71453    
    233100   309.92635     -218724.29      0             -218269.72      335.14108    
    233200   306.39292     -218722.44      0             -218273.05     -236.89648    
    233300   309.28387     -218725.47      0             -218271.84      255.47731    
    233400   311.58534     -218720.73      0             -218263.72     -118.66726    
    233500   311.79178     -218718.98      0             -218261.67     -325.54616    
    233600   309.57459     -218719.53      0             -218265.47     -1005.5127    
    233700   307.10066     -218723.26      0             -218272.83      1264.416     
    233800   308.08829     -218726.36      0             -218274.48      1757.0603    
    233900   306.9095      -218721.76      0             -218271.61      1053.2388    
    234000   308.13716     -218720         0             -218268.05      407.50629    
    234100   307.65332     -218716.24      0             -218265         19.294074    
    234200   309.84026     -218717.59      0             -218263.14      161.13516    
    234300   313.04632     -218718.87      0             -218259.72     -154.62433    
    234400   309.42795     -218714.52      0             -218260.68      99.734306    
    234500   307.95073     -218719.52      0             -218267.85      434.70823    
    234600   307.35328     -218721.91      0             -218271.11     -379.26453    
    234700   308.78058     -218723.43      0             -218270.54      381.71835    
    234800   313.11474     -218720.39      0             -218261.14     -216.03701    
    234900   314.2155      -218720.32      0             -218259.46      567.8701     
    235000   313.01626     -218722.15      0             -218263.05      629.90002    
    235100   311.99102     -218725.67      0             -218268.06      260.96222    
    235200   310.1739      -218724.59      0             -218269.66     -295.71087    
    235300   307.82516     -218720.26      0             -218268.77      419.659      
    235400   311.56384     -218723.34      0             -218266.36     -194.318      
    235500   311.95037     -218722.08      0             -218264.54     -38.32662     
    235600   311.16133     -218721.21      0             -218264.83     -488.14711    
    235700   311.62968     -218723.27      0             -218266.2      -281.83324    
    235800   308.75373     -218721.83      0             -218268.98      56.420648    
    235900   308.80359     -218723.71      0             -218270.79      42.081073    
    236000   306.16892     -218718.85      0             -218269.79      112.20344    
    236100   307.91422     -218715.2       0             -218263.58     -295.27226    
    236200   314.32928     -218719.83      0             -218258.8      -830.42372    
    236300   313.09978     -218720.32      0             -218261.09      24.564856    
    236400   306.07517     -218720.2       0             -218271.27     -67.954662    
    236500   309.44713     -218724.89      0             -218271.02      570.94113    
    236600   308.19553     -218719.15      0             -218267.12      343.43722    
    236700   310.14202     -218717.05      0             -218262.16     -49.699713    
    236800   309.58381     -218715.46      0             -218261.38     -491.69674    
    236900   305.12176     -218718.69      0             -218271.16     -589.46102    
    237000   305.66657     -218723.04      0             -218274.71     -735.59402    
    237100   310.7477      -218726.16      0             -218270.38     -1152.7901    
    237200   312.16501     -218721.73      0             -218263.87      302.15831    
    237300   308.51342     -218716.17      0             -218263.67      678.44168    
    237400   311.44245     -218721.99      0             -218265.19      508.22235    
    237500   309.6752      -218722.23      0             -218268.03     -49.021774    
    237600   311.94279     -218726.76      0             -218269.22     -252.01866    
    237700   309.44126     -218727.56      0             -218273.7      -318.46843    
    237800   308.73691     -218726.06      0             -218273.23     -646.70881    
    237900   309.12074     -218719.87      0             -218266.48      34.988194    
    238000   311.02481     -218718.8       0             -218262.62      403.41612    
    238100   311.3916      -218722.16      0             -218265.43     -739.07352    
    238200   306.41443     -218721.02      0             -218271.6       273.33902    
    238300   306.404       -218727.59      0             -218278.18      225.25569    
    238400   305.11762     -218728.32      0             -218280.8      -363.53878    
    238500   305.34886     -218718.39      0             -218270.53     -1112.2664    
    238600   312.16819     -218723.16      0             -218265.3      -520.51593    
    238700   309.97635     -218717.8       0             -218263.16      1358.8795    
    238800   310.4809      -218720.7       0             -218265.31     -93.321003    
    238900   307.82196     -218722.48      0             -218271        -427.66219    
    239000   307.82945     -218725.09      0             -218273.59      472.28562    
    239100   306.94637     -218722.96      0             -218272.76     -295.09789    
    239200   311.40951     -218721.67      0             -218264.92     -274.08909    
    239300   311.25408     -218718.87      0             -218262.35     -490.94239    
    239400   311.74347     -218721.08      0             -218263.84      47.876545    
    239500   309.39264     -218725.67      0             -218271.88     -105.71468    
    239600   310.19711     -218727.78      0             -218272.81      607.87172    
    239700   305.37241     -218718.62      0             -218270.73      822.42609    
    239800   311.31897     -218723.85      0             -218267.24     -679.9415     
    239900   308.79651     -218719.52      0             -218266.6      -862.02399    
    240000   310.31771     -218721.22      0             -218266.08     -217.83761    
    240100   309.51322     -218720.91      0             -218266.94     -944.31013    
    240200   309.61955     -218725.8       0             -218271.68      1095.4794    
    240300   308.89414     -218727.11      0             -218274.05      577.65866    
    240400   309.98677     -218723.86      0             -218269.2       914.56051    
    240500   309.98879     -218717.66      0             -218263         583.57246    
    240600   311.71996     -218719.02      0             -218261.82      833.4655     
    240700   309.82492     -218719.24      0             -218264.82      748.15782    
    240800   306.65521     -218718.36      0             -218268.58      695.94333    
    240900   310.00576     -218723.06      0             -218268.37      374.46034    
    241000   308.88399     -218720.55      0             -218267.51      217.97226    
    241100   312.58897     -218722.51      0             -218264.03      518.14909    
    241200   310.09538     -218719.67      0             -218264.85      257.16481    
    241300   308.56983     -218722.58      0             -218269.99      245.11159    
    241400   305.74045     -218723.88      0             -218275.45      362.43257    
    241500   309.47064     -218726.52      0             -218272.62      486.57145    
    241600   313.79457     -218724.3       0             -218264.06      180.21529    
    241700   310.92558     -218719.31      0             -218263.27      410.75452    
    241800   311.05712     -218720.9       0             -218264.67      804.54282    
    241900   307.99513     -218722.06      0             -218270.32     -390.83059    
    242000   307.24102     -218725.25      0             -218274.62     -611.86403    
    242100   307.63288     -218722.4       0             -218271.19     -435.91343    
    242200   306.14627     -218718.18      0             -218269.15      841.49158    
    242300   312.28053     -218725.26      0             -218267.24      308.4782     
    242400   310.74521     -218721.47      0             -218265.69      223.66062    
    242500   309.47868     -218720.28      0             -218266.36      434.2978     
    242600   305.39056     -218716.88      0             -218268.96     -261.66882    
    242700   310.8028      -218726.05      0             -218270.19     -1064.8408    
    242800   309.54219     -218724.19      0             -218270.18     -626.37816    
    242900   308.9158      -218717.54      0             -218264.45      44.910132    
    243000   314.78919     -218722.43      0             -218260.72      519.02701    
    243100   314.01161     -218723.07      0             -218262.51      597.81881    
    243200   307.85461     -218724.32      0             -218272.79     -371.45248    
    243300   306.29893     -218723.16      0             -218273.91      1872.7128    
    243400   310.39859     -218724.81      0             -218269.54      47.040423    
    243500   309.61185     -218717.87      0             -218263.76      696.88672    
    243600   311.87112     -218720.49      0             -218263.07     -203.16442    
    243700   311.78929     -218722.3       0             -218264.99      372.27104    
    243800   307.20382     -218717.93      0             -218267.35     -565.2832     
    243900   311.57322     -218724.69      0             -218267.7       373.47394    
    244000   306.56835     -218715.88      0             -218266.23      287.49748    
    244100   311.94357     -218717.46      0             -218259.93     -456.61774    
    244200   313.39774     -218718.06      0             -218258.4      -447.94374    
    244300   314.62674     -218726.31      0             -218264.84      82.050975    
    244400   309.13797     -218724.54      0             -218271.12     -462.85184    
    244500   308.95235     -218723.76      0             -218270.62      238.75045    
    244600   308.69377     -218720.25      0             -218267.48     -240.07831    
    244700   313.46787     -218721.83      0             -218262.06      250.9052     
    244800   314.93522     -218715.37      0             -218253.45      594.18546    
    244900   314.04602     -218710.11      0             -218249.5       1239.1395    
    245000   313.13465     -218716.52      0             -218257.24      354.85199    
    245100   313.02042     -218721.53      0             -218262.42     -105.02283    
    245200   311.51906     -218725.44      0             -218268.53      99.707962    
    245300   306.39598     -218721.68      0             -218272.28      535.93508    
    245400   312.31211     -218728.08      0             -218270.01     -780.12862    
    245500   309.85825     -218716.82      0             -218262.35     -644.33545    
    245600   313.83716     -218719.72      0             -218259.41     -260.43995    
    245700   311.49505     -218719.2       0             -218262.33     -312.602      
    245800   310.14826     -218720.59      0             -218265.69      470.45321    
    245900   311.47485     -218726.21      0             -218269.37      265.82595    
    246000   311.25251     -218727.88      0             -218271.37     -41.401892    
    246100   310.71341     -218724.08      0             -218268.36      0.66144607   
    246200   309.3334      -218713.33      0             -218259.63     -690.55356    
    246300   311.29846     -218716.18      0             -218259.59      0.0038826648 
    246400   312.55794     -218723.91      0             -218265.48      71.130101    
    246500   310.46806     -218725.63      0             -218270.26     -595.60785    
    246600   307.88421     -218721.9       0             -218270.32     -95.482538    
    246700   312.6401      -218725.7       0             -218267.14      72.077376    
    246800   310.02879     -218719.84      0             -218265.12     -777.32212    
    246900   308.37135     -218717.98      0             -218265.69      628.35155    
    247000   307.71578     -218721.72      0             -218270.39      1054.1675    
    247100   308.26081     -218726.22      0             -218274.08      608.78292    
    247200   309.94954     -218726.9       0             -218272.29     -55.790035    
    247300   310.42103     -218721.16      0             -218265.86      1544.6609    
    247400   311.68676     -218719.32      0             -218262.16      845.88262    
    247500   311.03008     -218720.54      0             -218264.34      9.9509258    
    247600   307.17529     -218723.7       0             -218273.16      62.525424    
    247700   304.94715     -218723.4       0             -218276.13     -159.83819    
    247800   305.81443     -218721.83      0             -218273.29     -419.95952    
    247900   312.2902      -218725.42      0             -218267.38      40.08017     
    248000   308.47699     -218716.46      0             -218264.01      453.73447    
    248100   312.67752     -218722.18      0             -218263.57     -1052.1635    
    248200   309.86309     -218725.81      0             -218271.33     -339.63973    
    248300   306.72493     -218726.64      0             -218276.76     -101.41289    
    248400   308.04064     -218725.53      0             -218273.72      826.17525    
    248500   309.19523     -218723.2       0             -218269.7       528.22079    
    248600   312.39909     -218725.02      0             -218266.82      792.30561    
    248700   308.19523     -218718.06      0             -218266.02     -184.85232    
    248800   309.91215     -218721.74      0             -218267.18      876.63866    
    248900   307.00407     -218724.27      0             -218273.98     -283.92949    
    249000   306.10639     -218726.35      0             -218277.37      678.14385    
    249100   308.44944     -218723.21      0             -218270.8       698.79789    
    249200   309.81235     -218719.48      0             -218265.07     -841.66636    
    249300   310.25384     -218720.28      0             -218265.22      65.943572    
    249400   307.31325     -218718.76      0             -218268.01     -389.76711    
    249500   308.45888     -218722.73      0             -218270.31      118.69609    
    249600   307.33954     -218724.33      0             -218273.55      410.09875    
    249700   306.07846     -218720.76      0             -218271.83      756.92317    
    249800   311.98998     -218721.72      0             -218264.12      706.04541    
    249900   310.99543     -218718.08      0             -218261.93     -333.00703    
    250000   310.26401     -218719.44      0             -218264.37      801.36469    
    250100   308.9742      -218725.79      0             -218272.62      69.95908     
    250200   308.61274     -218726.6       0             -218273.96      665.42722    
    250300   311.0151      -218726.86      0             -218270.69      1402.0602    
    250400   308.17299     -218718.81      0             -218266.81      954.92353    
    250500   311.12803     -218718.89      0             -218262.55      169.97329    
    250600   308.86339     -218714.81      0             -218261.8      -529.54143    
    250700   307.26021     -218721.76      0             -218271.1       746.06808    
    250800   308.03924     -218725.54      0             -218273.73      76.805451    
    250900   305.69909     -218717.78      0             -218269.4      -460.80237    
    251000   309.80654     -218717.74      0             -218263.34      493.76283    
    251100   309.04711     -218716.13      0             -218262.84      608.99853    
    251200   313.83802     -218725.54      0             -218265.23      426.06042    
    251300   309.46856     -218720.43      0             -218266.53      624.73074    
    251400   309.26289     -218721.31      0             -218267.71      270.28265    
    251500   310.05971     -218722.85      0             -218268.08     -825.09052    
    251600   306.9007      -218717.99      0             -218267.85     -173.36098    
    251700   308.43491     -218718.52      0             -218266.13      129.41168    
    251800   314.67938     -218720.7       0             -218259.15     -791.85751    
    251900   315.01256     -218721.46      0             -218259.42     -770.79631    
    252000   308.51192     -218719.76      0             -218267.26     -1074.3882    
    252100   308.87876     -218722.66      0             -218269.62     -398.27175    
    252200   311.77024     -218726.05      0             -218268.77     -663.94305    
    252300   312.85213     -218721.53      0             -218262.67      1318.5362    
    252400   312.59771     -218715.87      0             -218257.38      1110.2523    
    252500   311.01343     -218718.12      0             -218261.95      1469.3914    
    252600   307.60321     -218721.7       0             -218270.54      206.20636    
    252700   309.57252     -218723.58      0             -218269.52      285.73522    
    252800   309.22528     -218721.46      0             -218267.92     -442.70447    
    252900   309.76374     -218718.61      0             -218264.28     -826.44281    
    253000   312.67832     -218716.46      0             -218257.85      763.35371    
    253100   311.95643     -218716.51      0             -218258.96      1074.9139    
    253200   308.5078      -218722.01      0             -218269.52      321.1179     
    253300   307.67501     -218721.56      0             -218270.29      622.57322    
    253400   310.17809     -218722.54      0             -218267.6      -0.76208717   
    253500   312.81522     -218721.9       0             -218263.09     -44.264414    
    253600   311.27245     -218715.24      0             -218258.69     -172.48448    
    253700   308.80825     -218714.02      0             -218261.09     -494.51596    
    253800   308.68757     -218723.04      0             -218270.28     -501.44176    
    253900   308.76435     -218725.99      0             -218273.12      555.02064    
    254000   310.75161     -218725.16      0             -218269.38     -26.505136    
    254100   309.48306     -218716.92      0             -218263         174.89927    
    254200   313.29036     -218719.54      0             -218260.03      272.70613    
    254300   307.71674     -218720.93      0             -218269.59      593.19486    
    254400   307.60711     -218726.15      0             -218274.98      434.59506    
    254500   310.23851     -218726.42      0             -218271.39     -151.99687    
    254600   312.27424     -218722.47      0             -218264.46     -1196.8209    
    254700   308.42759     -218714.29      0             -218261.92     -860.8836     
    254800   306.23678     -218714.23      0             -218265.07      587.05308    
    254900   308.65357     -218725.68      0             -218272.98      90.512319    
    255000   308.14706     -218724.81      0             -218272.84     -390.54255    
    255100   307.83358     -218721.55      0             -218270.05     -34.565005    
    255200   308.5863      -218718.57      0             -218265.96     -255.06345    
    255300   311.45185     -218720.91      0             -218264.1      -274.46783    
    255400   312.91758     -218727.09      0             -218268.13      1613.9464    
    255500   305.72488     -218725.64      0             -218277.23      1282.2436    
    255600   306.42547     -218724.8       0             -218275.36      617.30699    
    255700   308.48408     -218720.82      0             -218268.37      414.5116     
    255800   312.38537     -218723.12      0             -218264.94     -188.07471    
    255900   309.94327     -218719.91      0             -218265.31     -226.95944    
    256000   309.01294     -218720.93      0             -218267.7      -1238.9799    
    256100   305.7887      -218723.86      0             -218275.36     -513.21926    
    256200   306.20374     -218727.53      0             -218278.42     -378.8232     
    256300   306.36337     -218721.22      0             -218271.87      302.35828    
    256400   312.60446     -218725.69      0             -218267.19     -33.613505    
    256500   312.18403     -218724.07      0             -218266.18     -265.65181    
    256600   307.536       -218719.39      0             -218268.32     -237.96266    
    256700   306.36802     -218722.55      0             -218273.2       130.18947    
    256800   307.42065     -218728.82      0             -218277.92      573.94765    
    256900   307.4029      -218726.82      0             -218275.94      288.36948    
    257000   309.38117     -218719.73      0             -218265.95      271.52566    
    257100   310.61369     -218718.96      0             -218263.38      952.68811    
    257200   310.44176     -218720.26      0             -218264.93      743.93982    
    257300   309.36706     -218723.83      0             -218270.08      180.89382    
    257400   307.76417     -218726.97      0             -218275.57     -867.52921    
    257500   311.31099     -218728.93      0             -218272.33     -408.89908    
    257600   309.19751     -218717.24      0             -218263.73     -295.58673    
    257700   311.96056     -218721.29      0             -218263.73     -701.9353     
    257800   310.60215     -218722.47      0             -218266.9      -191.07358    
    257900   309.95478     -218726.76      0             -218272.14      518.00967    
    258000   306.65572     -218723.51      0             -218273.73      502.51285    
    258100   310.64291     -218721.21      0             -218265.59     -620.15987    
    258200   310.48496     -218716.84      0             -218261.45      299.9394     
    258300   311.58156     -218721.19      0             -218264.18     -112.00082    
    258400   310.07836     -218722.78      0             -218267.99      1210.4654    
    258500   308.77762     -218722.57      0             -218269.68      1352.8266    
    258600   310.85346     -218723.65      0             -218267.72      701.38639    
    258700   312.45587     -218716.17      0             -218257.89     -824.66523    
    258800   315.37236     -218717.51      0             -218254.95      420.14785    
    258900   310.3403      -218718.29      0             -218263.11     -498.41028    
    259000   310.53396     -218723.12      0             -218267.66      326.73161    
    259100   310.47582     -218724.81      0             -218269.43     -724.13046    
    259200   311.32389     -218725.62      0             -218269        -139.05203    
    259300   309.66583     -218717.9       0             -218263.71     -190.00594    
    259400   312.82939     -218717.22      0             -218258.39      703.79768    
    259500   310.3605      -218716.04      0             -218260.83      870.24638    
    259600   308.32413     -218722.32      0             -218270.09      1109.4606    
    259700   307.3777      -218722.2       0             -218271.37     -391.93339    
    259800   310.42757     -218723.01      0             -218267.7      -334.49622    
    259900   311.85323     -218721.67      0             -218264.27     -424.54123    
    260000   311.85898     -218718.53      0             -218261.13      494.53248    
    260100   313.89259     -218723.28      0             -218262.88     -287.62663    
    260200   308.89845     -218723.33      0             -218270.27      356.93856    
    260300   309.10199     -218725.96      0             -218272.6       261.52767    
    260400   309.90761     -218726.27      0             -218271.73     -337.13241    
    260500   310.93444     -218718.95      0             -218262.9      -590.68022    
    260600   310.1268      -218714.21      0             -218259.34     -982.58544    
    260700   311.5495      -218719.55      0             -218262.59     -1397.4416    
    260800   309.19776     -218720.57      0             -218267.07      466.85485    
    260900   308.51848     -218720.95      0             -218268.44      163.72552    
    261000   310.97878     -218724.7       0             -218268.59     -724.45955    
    261100   310.73218     -218722.64      0             -218266.88     -178.38587    
    261200   310.27363     -218714.31      0             -218259.23      949.0139     
    261300   316.19069     -218720.72      0             -218256.96      1137.7753    
    261400   312.90665     -218724.25      0             -218265.31     -720.02658    
    261500   308.38967     -218721.8       0             -218269.48     -122.07647    
    261600   307.3658      -218721.61      0             -218270.79     -944.16462    
    261700   308.77616     -218720.87      0             -218267.98     -789.74198    
    261800   312.29585     -218719.49      0             -218261.44     -552.94041    
    261900   312.43099     -218715.37      0             -218257.12     -1157.7525    
    262000   309.08761     -218715.12      0             -218261.78     -278.23032    
    262100   312.08073     -218723.85      0             -218266.12      341.16364    
    262200   304.74191     -218714.97      0             -218268         35.698024    
    262300   308.37234     -218720.73      0             -218268.44      150.95621    
    262400   310.59243     -218723.2       0             -218267.65      33.627925    
    262500   312.14592     -218722.75      0             -218264.92      981.83115    
    262600   312.7469      -218721.02      0             -218262.31      782.68891    
    262700   313.47565     -218721.94      0             -218262.16     -485.31611    
    262800   307.5523      -218720.49      0             -218269.4      -226.44904    
    262900   308.79531     -218725.94      0             -218273.03     -370.22059    
    263000   308.70366     -218723.82      0             -218271.04     -920.40933    
    263100   312.88233     -218722.56      0             -218263.65     -659.31636    
    263200   312.60134     -218720.16      0             -218261.66     -166.92485    
    263300   313.10317     -218723.11      0             -218263.88      483.2319     
    263400   308.48116     -218719.56      0             -218267.1       992.75629    
    263500   312.70202     -218729.92      0             -218271.28      684.34052    
    263600   307.41098     -218724.94      0             -218274.06      478.23345    
    263700   309.01145     -218727.91      0             -218274.67      200.65025    
    263800   310.23594     -218723.59      0             -218268.56      14.799591    
    263900   314.5707      -218723.94      0             -218262.55     -830.59015    
    264000   307.55075     -218714.25      0             -218263.16     -627.52801    
    264100   308.88704     -218721.21      0             -218268.16     -1178.3216    
    264200   308.54172     -218728.88      0             -218276.34      527.86605    
    264300   307.13524     -218724.23      0             -218273.75      162.66437    
    264400   311.04514     -218726.24      0             -218270.03     -513.42143    
    264500   310.56183     -218722.4       0             -218266.89     -507.39384    
    264600   309.9365      -218719.09      0             -218264.5      -286.30095    
    264700   311.79794     -218718.13      0             -218260.82      491.45667    
    264800   312.37853     -218714.76      0             -218256.59      223.09368    
    264900   314.6104      -218721.66      0             -218260.21      321.90018    
    265000   307.07975     -218718.6       0             -218268.21     -213.78123    
    265100   309.66756     -218724.76      0             -218270.56      529.94256    
    265200   309.64285     -218723.44      0             -218269.28      827.5851     
    265300   310.04169     -218719.36      0             -218264.61      678.68478    
    265400   314.25787     -218717.44      0             -218256.52     -354.77826    
    265500   309.45646     -218713.15      0             -218259.27      1429.142     
    265600   307.56558     -218716.93      0             -218265.82     -111.74382    
    265700   308.21086     -218719.8       0             -218267.74      586.92478    
    265800   310.00755     -218721.9       0             -218267.21     -110.1981     
    265900   308.21788     -218717.35      0             -218265.28     -948.3318     
    266000   312.39456     -218719.71      0             -218261.52     -812.04608    
    266100   311.02755     -218717.27      0             -218261.08      246.31522    
    266200   308.42674     -218720.34      0             -218267.97      754.4212     
    266300   308.77747     -218724.6       0             -218271.71      963.3739     
    266400   309.11965     -218725.29      0             -218271.9       1008.7011    
    266500   308.70546     -218717.62      0             -218264.84      291.05308    
    266600   312.83884     -218717.01      0             -218258.16     -1043.6584    
    266700   311.1405      -218718.97      0             -218262.61     -28.110569    
    266800   308.19351     -218720.83      0             -218268.8      -31.041985    
    266900   309.61817     -218724.76      0             -218270.63      350.57014    
    267000   309.49148     -218722.74      0             -218268.81      460.71237    
    267100   311.58869     -218717.39      0             -218260.37     -931.57723    
    267200   313.21514     -218715.02      0             -218255.62      497.73243    
    267300   314.86133     -218722.31      0             -218260.5      -13.747602    
    267400   312.16455     -218723.52      0             -218265.66     -217.54625    
    267500   306.93657     -218719.09      0             -218268.9       252.3882     
    267600   307.01902     -218720.59      0             -218270.28     -237.8688     
    267700   308.40945     -218722.23      0             -218269.88     -405.77978    
    267800   311.53455     -218720.08      0             -218263.15      594.15922    
    267900   309.93371     -218715.19      0             -218260.61      367.69586    
    268000   310.43739     -218719.14      0             -218263.82     -390.69437    
    268100   310.19989     -218727.23      0             -218272.25      223.51526    
    268200   308.26955     -218725.95      0             -218273.8      -206.88776    
    268300   307.09932     -218720.76      0             -218270.33      626.74674    
    268400   312.26922     -218723.21      0             -218265.2       691.61358    
    268500   309.6659      -218718.66      0             -218264.47     -855.12463    
    268600   310.7372      -218720.37      0             -218264.61     -701.2254     
    268700   309.80741     -218722.07      0             -218267.67      15.739016    
    268800   305.1518      -218725.73      0             -218278.16     -266.29958    
    268900   306.98411     -218728.63      0             -218278.37      319.77334    
    269000   309.91294     -218726.51      0             -218271.95      417.67087    
    269100   309.99956     -218722.56      0             -218267.88      1115.3174    
    269200   311.25522     -218722.25      0             -218265.73      115.77231    
    269300   310.44728     -218719.75      0             -218264.41     -113.35338    
    269400   308.93531     -218718.05      0             -218264.93      201.38873    
    269500   309.37137     -218721.34      0             -218267.58     -219.34913    
    269600   306.42182     -218720.78      0             -218271.35      934.93279    
    269700   308.84229     -218726.06      0             -218273.07      768.69064    
    269800   309.69844     -218720.52      0             -218266.28     -64.530539    
    269900   310.22777     -218715.73      0             -218260.72     -610.55219    
    270000   309.71452     -218716.88      0             -218262.61     -916.42167    
    270100   315.08871     -218729.55      0             -218267.4       367.15501    
    270200   312.16138     -218728.3       0             -218270.45      530.22013    
    270300   307.58276     -218720.94      0             -218269.81     -104.84288    
    270400   311.20262     -218724.96      0             -218268.52      1.4475951    
    270500   309.85269     -218721.54      0             -218267.07      749.64782    
    270600   310.26645     -218720.6       0             -218265.53     -271.06498    
    270700   312.08074     -218721.37      0             -218263.64     -739.58262    
    270800   309.19473     -218718.83      0             -218265.33      17.725439    
    270900   314.60382     -218731.32      0             -218269.89     -357.45979    
    271000   307.04941     -218725.33      0             -218274.98     -298.74379    
    271100   311.55155     -218727.44      0             -218270.48     -433.35574    
    271200   312.65396     -218722.15      0             -218263.58      269.95028    
    271300   309.83228     -218718.35      0             -218263.91      150.62305    
    271400   311.00982     -218722.45      0             -218266.28      911.18612    
    271500   309.14665     -218723.53      0             -218270.1       145.30714    
    271600   303.21473     -218721.78      0             -218277.05      235.72736    
    271700   304.23719     -218725.01      0             -218278.78     -786.10325    
    271800   308.23481     -218720.06      0             -218267.97      922.21209    
    271900   310.30284     -218718.96      0             -218263.84      747.21947    
    272000   311.33167     -218720.76      0             -218264.13     -643.75883    
    272100   306.91362     -218717.13      0             -218266.97      1108.8629    
    272200   306.34775     -218722.42      0             -218273.09      210.62768    
    272300   307.64642     -218725.11      0             -218273.88      590.8785     
    272400   311.39867     -218720.8       0             -218264.07      1014.9306    
    272500   309.28418     -218715.49      0             -218261.85     -83.926177    
    272600   311.05505     -218720.13      0             -218263.9       246.8058     
    272700   306.98231     -218719.66      0             -218269.41      581.33044    
    272800   309.5437      -218727.42      0             -218273.41      279.61       
    272900   306.54456     -218721.2       0             -218271.59     -621.03097    
    273000   308.22139     -218721.57      0             -218269.5       220.00494    
    273100   313.00663     -218725.56      0             -218266.47     -148.48353    
    273200   310.65029     -218720.47      0             -218264.83      154.56721    
    273300   309.05526     -218719.82      0             -218266.52     -686.10748    
    273400   307.25916     -218722.63      0             -218271.97      1353.5986    
    273500   305.69512     -218722.05      0             -218273.69     -561.95076    
    273600   308.38275     -218721.92      0             -218269.61     -463.99645    
    273700   306.75016     -218712.07      0             -218262.16      24.344855    
    273800   313.07554     -218722.49      0             -218263.3       1135.1397    
    273900   311.82973     -218724.43      0             -218267.07      431.56336    
    274000   309.66074     -218724.45      0             -218270.27      1282.8082    
    274100   306.84329     -218721.45      0             -218271.39      587.38729    
    274200   310.51427     -218721.11      0             -218265.68     -574.56178    
    274300   313.89966     -218720.31      0             -218259.91     -655.99543    
    274400   310.24174     -218716.02      0             -218260.98     -1406.9129    
    274500   312.45021     -218726.03      0             -218267.75     -454.80444    
    274600   309.43852     -218724.92      0             -218271.06      278.33784    
    274700   310.39414     -218724.99      0             -218269.73      1033.4625    
    274800   311.34005     -218718.39      0             -218261.74     -612.86826    
    274900   312.46565     -218715.75      0             -218257.46     -723.1465     
    275000   313.68984     -218721.73      0             -218261.63      626.18816    
    275100   310.9618      -218723.05      0             -218266.96      983.83604    
    275200   308.11891     -218722.13      0             -218270.21      2113.9054    
    275300   310.026       -218726.65      0             -218271.93      438.59528    
    275400   309.86512     -218724.41      0             -218269.93     -754.76933    
    275500   315.3679      -218724.62      0             -218262.06      482.16939    
    275600   312.87283     -218719.81      0             -218260.92     -83.812394    
    275700   310.93449     -218722.36      0             -218266.31      479.41664    
    275800   308.12479     -218724.1       0             -218272.17     -696.81536    
    275900   307.91075     -218722.97      0             -218271.36     -22.049024    
    276000   306.82148     -218718.33      0             -218268.31     -1227.8121    
    276100   307.46346     -218717.26      0             -218266.3      -105.87116    
    276200   308.11939     -218718.61      0             -218266.68      365.12772    
    276300   309.19258     -218725.37      0             -218271.87      288.4602     
    276400   303.08266     -218723.18      0             -218278.65      926.65777    
    276500   308.82772     -218725.94      0             -218272.97     -406.10763    
    276600   310.17761     -218722.34      0             -218267.39     -801.36486    
    276700   310.65314     -218721.67      0             -218266.03     -347.75946    
    276800   308.47095     -218717.36      0             -218264.93      533.47805    
    276900   308.92542     -218719.66      0             -218266.56     -495.17207    
    277000   305.45543     -218719.61      0             -218271.6      -234.17484    
    277100   312.51645     -218733.33      0             -218274.96     -209.72257    
    277200   307.2266      -218722.35      0             -218271.73      69.513338    
    277300   314.27934     -218724.71      0             -218263.75      118.32056    
    277400   312.7039      -218721.73      0             -218263.08     -258.31016    
    277500   309.82668     -218721.88      0             -218267.45     -98.245884    
    277600   307.76656     -218722.23      0             -218270.82      555.9849     
    277700   306.76482     -218721.63      0             -218271.69      293.36282    
    277800   310.32075     -218727.12      0             -218271.97     -613.3867     
    277900   309.76092     -218722.42      0             -218268.09     -861.95511    
    278000   310.07979     -218717.66      0             -218262.87     -1300.786     
    278100   313.9486      -218722.48      0             -218262.01     -323.87657    
    278200   311.62304     -218725.61      0             -218268.55     -619.1486     
    278300   306.67127     -218723.56      0             -218273.76     -220.78982    
    278400   306.84295     -218721.35      0             -218271.3       117.33094    
    278500   310.89094     -218723.19      0             -218267.2      -378.10786    
    278600   306.69406     -218715.92      0             -218266.09      507.27494    
    278700   311.45465     -218723.36      0             -218266.54     -564.44747    
    278800   306.75482     -218717.03      0             -218267.11     -559.41251    
    278900   310.32725     -218722.5       0             -218267.34     -829.79761    
    279000   307.11761     -218718.38      0             -218267.92      289.40773    
    279100   310.37542     -218723.25      0             -218268.02      440.76589    
    279200   310.77218     -218722.09      0             -218266.28     -598.78706    
    279300   311.55136     -218720.86      0             -218263.9      -1091.021     
    279400   313.00784     -218717.03      0             -218257.94      397.85398    
    279500   313.86483     -218719         0             -218258.65     -560.08407    
    279600   308.85895     -218720.31      0             -218267.3      -219.95848    
    279700   309.10838     -218723.35      0             -218269.97     -144.63779    
    279800   305.77885     -218718.14      0             -218269.65     -261.9492     
    279900   309.68613     -218719.41      0             -218265.19      296.22744    
    280000   311.86333     -218714.34      0             -218256.93     -201.15537    
    280100   315.24028     -218717.54      0             -218255.17     -514.54019    
    280200   310.70533     -218718.83      0             -218263.11     -57.331855    
    280300   308.99781     -218719.2       0             -218265.99      802.52327    
    280400   311.93476     -218725.83      0             -218268.31      236.31893    
    280500   308.78825     -218723.72      0             -218270.82      110.46514    
    280600   307.42998     -218724.3       0             -218273.39      1343.5212    
    280700   311.06646     -218725.57      0             -218269.33      377.68638    
    280800   310.74005     -218717.34      0             -218261.57      245.78796    
    280900   313.84892     -218721.76      0             -218261.43      17.88596     
    281000   308.84984     -218718.92      0             -218265.92     -1643.3458    
    281100   309.22489     -218723.24      0             -218269.69     -1779.4669    
    281200   308.70038     -218722.61      0             -218269.84     -876.83452    
    281300   307.81297     -218719.01      0             -218267.53      140.97802    
    281400   310.16158     -218720.73      0             -218265.81     -999.58117    
    281500   308.36014     -218716.61      0             -218264.33     -396.44234    
    281600   311.30766     -218719.03      0             -218262.43     -47.853161    
    281700   313.15925     -218725.19      0             -218265.87      770.59253    
    281800   310.32239     -218727.39      0             -218272.24      608.96828    
    281900   305.50646     -218721.81      0             -218273.72     -111.99648    
    282000   307.94143     -218719.52      0             -218267.86     -220.91792    
    282100   314.34263     -218720.91      0             -218259.86      389.30451    
    282200   314.55486     -218724.41      0             -218263.05      429.99191    
    282300   311.3115      -218724.83      0             -218268.22      129.5198     
    282400   312.01127     -218727.62      0             -218269.98      1142.4048    
    282500   310.43964     -218724.39      0             -218269.06      52.228172    
    282600   312.47115     -218720.66      0             -218262.36      309.89808    
    282700   314.68796     -218719.95      0             -218258.39     -949.52935    
    282800   311.33006     -218721.8       0             -218265.17     -573.36057    
    282900   307.76819     -218721.36      0             -218269.95     -407.71415    
    283000   310.5441      -218726.6       0             -218271.12      44.273708    
    283100   310.09532     -218725.66      0             -218270.83      362.8571     
    283200   311.44001     -218722.98      0             -218266.18      240.21373    
    283300   313.02895     -218719.31      0             -218260.18      411.47303    
    283400   309.31365     -218717.13      0             -218263.46      1001.7015    
    283500   311.17896     -218727.54      0             -218271.12      899.93486    
    283600   307.84502     -218724.76      0             -218273.24      1307.7773    
    283700   308.88293     -218723.21      0             -218270.17      698.07927    
    283800   311.56195     -218722.28      0             -218265.31      383.28189    
    283900   311.66566     -218719.5       0             -218262.37      861.42862    
    284000   312.72273     -218722.92      0             -218264.24      555.25381    
    284100   310.97098     -218727.72      0             -218271.61      916.44231    
    284200   310.41671     -218730.27      0             -218274.97      233.96996    
    284300   308.09166     -218724.71      0             -218272.83     -732.09807    
    284400   311.10576     -218721.01      0             -218264.7      -237.15543    
    284500   313.81676     -218722.26      0             -218261.98     -836.37144    
    284600   310.23133     -218720.36      0             -218265.34     -41.239596    
    284700   308.83795     -218722.23      0             -218269.26      1107.8172    
    284800   307.61479     -218722.78      0             -218271.6      -267.97274    
    284900   308.98815     -218724.56      0             -218271.37     -112.56159    
    285000   309.42467     -218721.9       0             -218268.06     -252.20712    
    285100   312.9758      -218717.44      0             -218258.39      57.488539    
    285200   314.73165     -218716.74      0             -218255.12     -444.30673    
    285300   313.25181     -218722.89      0             -218263.44     -164.65887    
    285400   308.75483     -218721.26      0             -218268.41     -410.74645    
    285500   308.37044     -218723.78      0             -218271.49      771.96937    
    285600   307.77324     -218725.36      0             -218273.94     -395.68223    
    285700   309.25315     -218727.14      0             -218273.55     -908.11436    
    285800   308.74108     -218719.51      0             -218266.68     -504.18445    
    285900   313.83275     -218722.24      0             -218261.94     -703.15742    
    286000   308.50305     -218718.02      0             -218265.53     -774.52203    
    286100   311.7654      -218729.33      0             -218272.06     -247.72306    
    286200   309.87991     -218727.49      0             -218272.98      159.34218    
    286300   310.53773     -218726.33      0             -218270.86     -529.51035    
    286400   312.53876     -218728.01      0             -218269.6       130.10518    
    286500   307.80195     -218718.57      0             -218267.11      525.47064    
    286600   312.4454      -218719.41      0             -218261.14     -1207.9082    
    286700   312.44434     -218719.85      0             -218261.58     -856.87899    
    286800   309.83878     -218724.06      0             -218269.62      109.41554    
    286900   308.81348     -218725.38      0             -218272.44      1329.9747    
    287000   311.13093     -218728.08      0             -218271.74      293.49223    
    287100   311.38404     -218726.09      0             -218269.38      47.385709    
    287200   310.29284     -218715.02      0             -218259.91     -745.04315    
    287300   313.99443     -218718.72      0             -218258.18     -224.71673    
    287400   313.64232     -218724.25      0             -218264.22     -125.6081     
    287500   309.16306     -218721.51      0             -218268.05      435.58179    
    287600   310.85873     -218726.09      0             -218270.15     -193.75506    
    287700   307.71463     -218725.12      0             -218273.79     -332.3574     
    287800   307.29923     -218727.09      0             -218276.37      222.51536    
    287900   309.2596      -218729.97      0             -218276.37      6.0034306    
    288000   309.0788      -218723.63      0             -218270.3       150.24907    
    288100   312.6329      -218723.1       0             -218264.56     -155.04254    
    288200   310.80106     -218721.17      0             -218265.31     -926.30521    
    288300   305.9462      -218720.68      0             -218271.94      266.82362    
    288400   307.44461     -218727.35      0             -218276.41     -987.93843    
    288500   308.16589     -218726.85      0             -218274.85     -946.23887    
    288600   311.07106     -218728.79      0             -218272.54     -1201.6148    
    288700   310.93289     -218725.19      0             -218269.14      380.13927    
    288800   309.77624     -218719.66      0             -218265.3       308.99649    
    288900   311.41886     -218718.45      0             -218261.68      793.78297    
    289000   312.38794     -218720.39      0             -218262.21     -435.56647    
    289100   308.78619     -218723.75      0             -218270.85     -256.02695    
    289200   307.65483     -218725.16      0             -218273.92      262.37813    
    289300   306.75387     -218722.1       0             -218272.18     -1096.0134    
    289400   312.41151     -218723.31      0             -218265.09      577.15842    
    289500   310.91096     -218718.52      0             -218262.5       326.06526    
    289600   310.52972     -218721.37      0             -218265.91      122.58621    
    289700   309.59763     -218722.58      0             -218268.49      250.40544    
    289800   307.8229      -218720.47      0             -218268.98      225.50582    
    289900   312.24865     -218728.18      0             -218270.2       159.93209    
    290000   312.83563     -218733.06      0             -218274.22     -53.303392    
    290100   307.33156     -218730.31      0             -218279.54     -45.314927    
    290200   308.80552     -218728.97      0             -218276.04      538.03516    
    290300   309.59871     -218721.76      0             -218267.67      314.07546    
    290400   310.38364     -218721.68      0             -218266.43      440.89992    
    290500   312.40856     -218725.53      0             -218267.31     -212.05342    
    290600   308.52186     -218726.19      0             -218273.68     -617.11161    
    290700   307.56844     -218727.43      0             -218276.32     -207.7092     
    290800   310.87823     -218724.45      0             -218268.48     -632.5151     
    290900   311.76586     -218719.38      0             -218262.11     -131.30006    
    291000   311.39241     -218721.39      0             -218264.67     -1168.5901    
    291100   310.75953     -218727.07      0             -218271.28      506.89917    
    291200   309.77404     -218727.52      0             -218273.17     -85.276485    
    291300   311.40879     -218726.72      0             -218269.97     -567.11374    
    291400   311.101       -218724.27      0             -218267.98     -427.78757    
    291500   307.8937      -218719.63      0             -218268.04     -1289.8217    
    291600   308.36473     -218720.95      0             -218268.67     -321.12338    
    291700   308.22566     -218721.29      0             -218269.21      65.823188    
    291800   309.99159     -218723.88      0             -218269.21     -209.45777    
    291900   311.56507     -218725.76      0             -218268.78     -159.08536    
    292000   310.23199     -218723.57      0             -218268.54      464.58072    
    292100   308.83191     -218724.23      0             -218271.26     -649.791      
    292200   309.24691     -218727.22      0             -218273.64     -1623.8786    
    292300   312.21195     -218732.36      0             -218274.44      98.456003    
    292400   309.19742     -218724         0             -218270.5      -103.02881    
    292500   312.27684     -218721.56      0             -218263.54     -177.61552    
    292600   313.57359     -218722.79      0             -218262.87      781.31567    
    292700   311.17269     -218725.23      0             -218268.82      34.07299     
    292800   307.70994     -218724.86      0             -218273.54      342.26226    
    292900   306.79875     -218722.31      0             -218272.32      202.12874    
    293000   309.57443     -218723.82      0             -218269.76      290.54282    
    293100   310.9447      -218721.76      0             -218265.7      -1242.8949    
    293200   314.93809     -218723.56      0             -218261.63     -933.59217    
    293300   310.47065     -218718.52      0             -218263.15     -462.39251    
    293400   307.48128     -218722.45      0             -218271.47     -512.73641    
    293500   309.93929     -218729.38      0             -218274.79     -828.55802    
    293600   307.58144     -218723.26      0             -218272.12     -51.963138    
    293700   311.74894     -218722.89      0             -218265.65      483.59383    
    293800   314.45333     -218725.7       0             -218264.49      425.77295    
    293900   313.66048     -218726.15      0             -218266.09     -15.792142    
    294000   308.18393     -218720.2       0             -218268.18      436.28772    
    294100   308.77824     -218722.75      0             -218269.86      343.93219    
    294200   308.58114     -218725.57      0             -218272.96      417.04431    
    294300   303.0481      -218723.93      0             -218279.45     -629.32806    
    294400   308.81537     -218734.34      0             -218281.4       146.75663    
    294500   310.69412     -218727.58      0             -218271.88     -358.91611    
    294600   312.75469     -218726.12      0             -218267.4       160.31993    
    294700   311.16202     -218723.5       0             -218267.12      999.79093    
    294800   309.63107     -218723.4       0             -218269.26     -116.71773    
    294900   307.0726      -218726.42      0             -218276.04     -1045.4675    
    295000   306.82933     -218727.74      0             -218277.71     -619.54971    
    295100   310.16108     -218723.13      0             -218268.21      329.38204    
    295200   311.33559     -218720.29      0             -218263.65      206.62816    
    295300   312.47397     -218724.77      0             -218266.46      170.65612    
    295400   310.19511     -218726.76      0             -218271.79      306.94257    
    295500   307.19261     -218724.94      0             -218274.37      262.16544    
    295600   312.83043     -218727.51      0             -218268.68     -52.347903    
    295700   313.21336     -218720.04      0             -218260.65      19.470857    
    295800   311.3667      -218720.5       0             -218263.81      1233.6925    
    295900   311.46156     -218724.8       0             -218267.98      240.14525    
    296000   311.57207     -218728.19      0             -218271.21      384.39239    
    296100   307.26429     -218722.84      0             -218272.18     -127.53654    
    296200   310.16894     -218723.99      0             -218269.06     -157.54603    
    296300   314.76548     -218719.42      0             -218257.75      28.58169     
    296400   313.76876     -218719.76      0             -218259.55     -130.83394    
    296500   308.50575     -218718.85      0             -218266.36      571.84385    
    296600   311.50762     -218727.02      0             -218270.13      230.25054    
    296700   312.60863     -218730.49      0             -218271.98     -277.58537    
    296800   310.04894     -218726.3       0             -218271.55     -1131.0044    
    296900   311.56198     -218721.13      0             -218264.16     -1142.705     
    297000   312.42017     -218719.14      0             -218260.91      132.99441    
    297100   311.43701     -218722.45      0             -218265.67      227.53968    
    297200   310.84564     -218728.47      0             -218272.55      791.72178    
    297300   306.83834     -218723.73      0             -218273.68      332.38135    
    297400   307.13831     -218721.23      0             -218270.75     -938.37615    
    297500   312.36067     -218725.27      0             -218267.13      470.44809    
    297600   312.05237     -218720.43      0             -218262.74      66.453897    
    297700   315.10014     -218718.38      0             -218256.22     -598.93045    
    297800   310.4824      -218714.88      0             -218259.49     -98.657036    
    297900   314.00338     -218728.65      0             -218268.09     -726.53046    
    298000   310.13608     -218725.93      0             -218271.04     -235.00566    
    298100   310.26866     -218727.21      0             -218272.14     -154.26411    
    298200   308.2869      -218721.01      0             -218268.84      299.9984     
    298300   313.44051     -218720.82      0             -218261.09      83.730021    
    298400   310.34687     -218716.08      0             -218260.89     -347.28704    
    298500   309.99557     -218722.02      0             -218267.35      202.61837    
    298600   308.75369     -218723.79      0             -218270.93      116.93712    
    298700   308.36705     -218722.26      0             -218269.97      274.34827    
    298800   309.35536     -218722.37      0             -218268.64      910.03314    
    298900   310.21226     -218720.87      0             -218265.88     -278.20687    
    299000   312.69269     -218720.91      0             -218262.28     -689.37978    
    299100   313.45278     -218723.23      0             -218263.49      177.16817    
    299200   307.60106     -218722.58      0             -218271.42     -854.14064    
    299300   307.95882     -218726.08      0             -218274.39     -1167.9502    
    299400   307.24418     -218723.36      0             -218272.72     -77.589585    
    299500   312.51937     -218723.04      0             -218264.67     -965.35233    
    299600   310.82856     -218720.5       0             -218264.6      -233.39531    
    299700   307.65186     -218718.12      0             -218266.88     -6.0517913    
    299800   311.13024     -218727.03      0             -218270.69     -298.47651    
    299900   306.0482      -218724.57      0             -218275.68      84.755549    
    300000   306.15039     -218729.08      0             -218280.05      455.34749    
    300100   305.96281     -218728.07      0             -218279.31      688.74465    
    300200   307.76219     -218721.89      0             -218270.49     -167.949      
    300300   309.7194      -218719.98      0             -218265.71      731.76604    
    300400   309.12747     -218718.51      0             -218265.11      241.50888    
    300500   311.16158     -218724.23      0             -218267.85     -178.31638    
    300600   306.21196     -218724.5       0             -218275.37     -134.66783    
    300700   306.65461     -218727.14      0             -218277.36      677.77397    
    300800   308.75055     -218722.67      0             -218269.82      587.36945    
    300900   311.77235     -218722.08      0             -218264.8       32.278314    
    301000   312.95103     -218724.06      0             -218265.05     -253.60282    
    301100   309.59448     -218723.67      0             -218269.58     -372.57136    
    301200   309.21586     -218726.68      0             -218273.15     -716.68842    
    301300   310.38264     -218728.86      0             -218273.62     -1115.8631    
    301400   310.92553     -218721.78      0             -218265.74      377.97371    
    301500   311.56186     -218718.53      0             -218261.56     -234.50088    
    301600   315.39208     -218726.63      0             -218264.04     -261.3003     
    301700   309.10425     -218725.66      0             -218272.3      -321.73546    
    301800   308.81983     -218726.28      0             -218273.33      343.09638    
    301900   311.58669     -218728.1       0             -218271.09      1463.4614    
    302000   310.40984     -218723.29      0             -218268.01     -79.472807    
    302100   312.97268     -218719.46      0             -218260.42     -218.57823    
    302200   313.80538     -218715.44      0             -218255.17      554.54697    
    302300   314.15937     -218722.96      0             -218262.17     -1439.7741    
    302400   312.23677     -218725.14      0             -218267.17     -693.15594    
    302500   308.64885     -218722.57      0             -218269.87     -346.1972     
    302600   311.46639     -218727.06      0             -218270.23      146.50771    
    302700   306.04274     -218720         0             -218271.12     -716.805      
    302800   310.54613     -218724.08      0             -218268.6      -1137.8714    
    302900   313.74807     -218722.55      0             -218262.38     -47.485284    
    303000   309.13892     -218716.33      0             -218262.91     -87.469383    
    303100   308.85183     -218724.96      0             -218271.97      1258.1727    
    303200   306.70415     -218724.79      0             -218274.94      929.14489    
    303300   307.40469     -218723.26      0             -218272.39      146.25738    
    303400   310.56176     -218723.21      0             -218267.7       506.45977    
    303500   316.07191     -218729         0             -218265.41      841.80521    
    303600   311.97805     -218726.33      0             -218268.75      769.52977    
    303700   306.80075     -218727.56      0             -218277.57      970.60944    
    303800   308.69431     -218730.31      0             -218277.54      571.3894     
    303900   306.25725     -218719.42      0             -218270.23     -408.38291    
    304000   309.17963     -218720.03      0             -218266.55      276.25224    
    304100   314.33802     -218726.65      0             -218265.61     -23.272751    
    304200   312.11519     -218725.95      0             -218268.17     -1004.4629    
    304300   305.35297     -218724.93      0             -218277.06     -33.077758    
    304400   306.33003     -218729.51      0             -218280.21     -428.21587    
    304500   308.14549     -218728.96      0             -218277        -68.269739    
    304600   310.29205     -218727.87      0             -218272.76      561.69023    
    304700   310.34742     -218722.81      0             -218267.62     -175.57876    
    304800   311.64309     -218723.35      0             -218266.26      675.74379    
    304900   310.87791     -218725.73      0             -218269.76     -346.788      
    305000   306.75844     -218727.72      0             -218277.79      207.64375    
    305100   307.27974     -218727.99      0             -218277.3      -552.72397    
    305200   310.94758     -218728.03      0             -218271.96      482.44375    
    305300   309.29815     -218723         0             -218269.35      551.18125    
    305400   310.79483     -218724.91      0             -218269.07     -137.61303    
    305500   312.75043     -218727.42      0             -218268.71     -410.94735    
    305600   308.34101     -218722.62      0             -218270.37     -507.37544    
    305700   308.7831      -218727.65      0             -218274.75     -745.29512    
    305800   307.92247     -218728.04      0             -218276.4       160.8644     
    305900   312.82397     -218729.69      0             -218270.87      318.58046    
    306000   309.86798     -218719.12      0             -218264.63      8.2782642    
    306100   311.80938     -218721.63      0             -218264.29      1087.7535    
    306200   310.79645     -218723.49      0             -218267.64     -110.01336    
    306300   307.91203     -218724.64      0             -218273.02      385.19901    
    306400   307.62455     -218725.38      0             -218274.18      835.70602    
    306500   306.26068     -218722.13      0             -218272.93      231.84693    
    306600   313.34831     -218726.82      0             -218267.22      963.50469    
    306700   311.11734     -218720.69      0             -218264.37     -351.16336    
    306800   309.93691     -218722.89      0             -218268.31      7.7262112    
    306900   309.02344     -218728.43      0             -218275.18     -471.04046    
    307000   306.16116     -218726.87      0             -218277.82     -87.534256    
    307100   309.72789     -218724.21      0             -218269.93     -65.994413    
    307200   314.82901     -218724.85      0             -218263.09     -613.93523    
    307300   313.03097     -218724.21      0             -218265.08     -263.87629    
    307400   307.47307     -218722.14      0             -218271.16      123.70093    
    307500   310.93256     -218729.71      0             -218273.67      115.23926    
    307600   307.1143      -218723.62      0             -218273.17      806.55021    
    307700   309.28949     -218717.63      0             -218263.99     -312.42429    
    307800   312.87209     -218720.43      0             -218261.53     -535.41379    
    307900   307.05749     -218716.63      0             -218266.26      947.35769    
    308000   308.96986     -218725         0             -218271.83      311.76204    
    308100   306.58497     -218722.46      0             -218272.79     -1055.6646    
    308200   311.20886     -218727.09      0             -218270.63     -311.12394    
    308300   310.78298     -218724.16      0             -218268.33     -388.04958    
    308400   311.0163      -218724.3       0             -218268.13      582.87928    
    308500   308.78167     -218721.51      0             -218268.61      299.65336    
    308600   314.09181     -218729.77      0             -218269.08      376.70514    
    308700   313.03011     -218729.35      0             -218270.22      522.18033    
    308800   309.44617     -218726.58      0             -218272.71      104.28737    
    308900   307.81635     -218724.93      0             -218273.45      1309.4643    
    309000   308.83621     -218722.45      0             -218269.48      6.9568265    
    309100   312.76358     -218722.17      0             -218263.43     -653.37821    
    309200   311.86665     -218719.38      0             -218261.96      721.18618    
    309300   309.51407     -218724.14      0             -218270.17      423.95728    
    309400   306.57274     -218724.62      0             -218274.97     -239.89116    
    309500   310.96228     -218729         0             -218272.91     -165.18912    
    309600   311.34699     -218723.61      0             -218266.96     -779.95911    
    309700   312.40213     -218722.93      0             -218264.72      542.69052    
    309800   310.72666     -218723.93      0             -218268.18      272.5085     
    309900   306.22693     -218727.89      0             -218278.74      157.30863    
    310000   308.32815     -218729.36      0             -218277.13      288.98798    
    310100   305.55275     -218719.2       0             -218271.04     -316.35203    
    310200   311.82094     -218724.22      0             -218266.86     -758.47959    
    310300   313.2291      -218725.4       0             -218265.99      15.200309    
    310400   307.70179     -218720.59      0             -218269.28      381.23161    
    310500   308.48973     -218729.22      0             -218276.75     -21.86711     
    310600   305.66881     -218730.73      0             -218282.4       166.76359    
    310700   304.98939     -218723.84      0             -218276.51      420.14955    
    310800   308.14864     -218723.43      0             -218271.47     -662.1567     
    310900   310.9498      -218724         0             -218267.93     -712.2354     
    311000   310.90217     -218721.87      0             -218265.87      8.653274     
    311100   312.73812     -218726.17      0             -218267.47     -268.61177    
    311200   306.58061     -218725.55      0             -218275.89      216.35365    
    311300   308.15923     -218727.82      0             -218275.83      133.55394    
    311400   308.70944     -218722.59      0             -218269.8      -47.104348    
    311500   309.58491     -218719.06      0             -218264.98     -282.16722    
    311600   311.40923     -218722.4       0             -218265.65      71.782388    
    311700   310.56823     -218723.26      0             -218267.75      211.02705    
    311800   309.59602     -218724.84      0             -218270.75     -718.41931    
    311900   307.20719     -218726.17      0             -218275.59     -312.88502    
    312000   302.93009     -218727.8       0             -218283.49      232.68668    
    312100   308.32936     -218733.27      0             -218281.04      968.64986    
    312200   312.44885     -218729.46      0             -218271.19     -35.667582    
    312300   310.12383     -218723.1       0             -218268.24      250.10034    
    312400   313.33795     -218725.15      0             -218265.57     -116.56171    
    312500   314.35216     -218727.24      0             -218266.17     -46.64282     
    312600   309.07862     -218726.24      0             -218272.91      680.79433    
    312700   308.34535     -218727.83      0             -218275.57      488.00938    
    312800   309.82307     -218725.01      0             -218270.59      270.72534    
    312900   308.264       -218714.03      0             -218261.9      -504.80162    
    313000   311.64881     -218720.67      0             -218263.57     -495.44268    
    313100   307.06729     -218719.47      0             -218269.09      245.51141    
    313200   308.70851     -218726.18      0             -218273.39      51.838392    
    313300   307.13699     -218724.01      0             -218273.53     -207.52064    
    313400   307.40809     -218721.8       0             -218270.92     -124.50808    
    313500   311.24422     -218726.37      0             -218269.86     -990.54411    
    313600   310.77319     -218724.5       0             -218268.69     -360.04286    
    313700   308.31663     -218721.59      0             -218269.38     -355.53602    
    313800   310.32763     -218727.92      0             -218272.75     -437.51759    
    313900   308.23606     -218728.96      0             -218276.87     -307.10691    
    314000   310.59983     -218731.79      0             -218276.23      1137.624     
    314100   308.52665     -218720.45      0             -218267.93      255.96596    
    314200   310.21317     -218718.81      0             -218263.82     -202.40915    
    314300   312.3901      -218724.41      0             -218266.23     -621.68661    
    314400   307.76517     -218722.92      0             -218271.52      679.56374    
    314500   308.59641     -218724.79      0             -218272.17     -1055.7514    
    314600   306.9547      -218721.59      0             -218271.37     -1620.39      
    314700   309.90625     -218723.93      0             -218269.39      928.42269    
    314800   310.55295     -218723.42      0             -218267.93      369.6952     
    314900   312.67297     -218724.68      0             -218266.08     -69.498596    
    315000   312.80306     -218723.39      0             -218264.6      -394.22622    
    315100   310.67174     -218722.24      0             -218266.57     -248.74263    
    315200   308.99651     -218725.57      0             -218272.36      35.067166    
    315300   308.41157     -218728.27      0             -218275.92      313.22313    
    315400   308.05408     -218727.51      0             -218275.68      669.42411    
    315500   315.84771     -218729.4       0             -218266.14      510.60112    
    315600   312.64421     -218723.24      0             -218264.68      1268.4328    
    315700   310.28254     -218722.93      0             -218267.83      667.33072    
    315800   308.62706     -218724.98      0             -218272.31     -187.81685    
    315900   304.02175     -218725.19      0             -218279.28      16.685394    
    316000   302.95653     -218731.11      0             -218286.76      112.38329    
    316100   303.63984     -218728.1       0             -218282.75      1251.2053    
    316200   307.91351     -218725.21      0             -218273.59      581.69553    
    316300   309.80883     -218722.39      0             -218267.99     -398.01764    
    316400   313.16532     -218723.71      0             -218264.39     -121.94066    
    316500   309.75589     -218719.89      0             -218265.57     -532.24574    
    316600   310.23701     -218728.42      0             -218273.39      219.36822    
    316700   306.98842     -218725.78      0             -218275.52      360.40129    
    316800   310.40446     -218727.5       0             -218272.22     -1244.4197    
    316900   311.77649     -218726.1       0             -218268.81     -379.57511    
    317000   312.31627     -218726.72      0             -218268.64     -685.25228    
    317100   308.88741     -218722.25      0             -218269.2      -983.88342    
    317200   311.41541     -218726.71      0             -218269.95      547.64062    
    317300   311.01095     -218725         0             -218268.83     -488.62254    
    317400   311.94057     -218724.04      0             -218266.51     -132.13306    
    317500   309.5747      -218718.8       0             -218264.74      616.81072    
    317600   307.2096      -218718.1       0             -218267.51      107.66622    
    317700   308.58546     -218725.4       0             -218272.79     -638.26488    
    317800   306.57152     -218725.38      0             -218275.72     -92.085753    
    317900   306.82955     -218723.32      0             -218273.29      941.53032    
    318000   314.16473     -218725.14      0             -218264.35      269.9215     
    318100   311.86594     -218721.53      0             -218264.11      649.27814    
    318200   311.19352     -218725.37      0             -218268.94      677.79798    
    318300   307.21342     -218725.97      0             -218275.37     -629.62626    
    318400   308.49882     -218727.69      0             -218275.21     -621.19739    
    318500   308.33265     -218725.11      0             -218272.88      707.63892    
    318600   309.02127     -218723.14      0             -218269.9       449.50376    
    318700   311.70397     -218725.01      0             -218267.83      248.74052    
    318800   312.02601     -218722.28      0             -218264.62      715.31286    
    318900   314.8956      -218720.28      0             -218258.42     -674.0301     
    319000   317.08133     -218725.81      0             -218260.74     -808.56682    
    319100   309.35183     -218723.17      0             -218269.44     -457.98997    
    319200   308.12315     -218724.23      0             -218272.3      -852.31755    
    319300   311.18213     -218728.52      0             -218272.11     -18.328836    
    319400   312.3665      -218724.82      0             -218266.66      46.553901    
    319500   313.67178     -218720.45      0             -218260.39     -598.24297    
    319600   311.66612     -218720.03      0             -218262.91     -34.651597    
    319700   306.67611     -218722.54      0             -218272.74     -1131.4634    
    319800   308.28321     -218725.07      0             -218272.91     -583.48366    
    319900   311.42575     -218726.23      0             -218269.46      497.97529    
    320000   308.21756     -218716.94      0             -218264.87     -336.4        
    320100   311.81518     -218719.47      0             -218262.12      139.60163    
    320200   307.4974      -218720.37      0             -218269.35      454.24382    
    320300   308.3769      -218727.11      0             -218274.81      1282.1234    
    320400   309.09501     -218727.96      0             -218274.61     -431.65287    
    320500   310.40687     -218724.23      0             -218268.95      1006.2996    
    320600   310.74533     -218718.52      0             -218262.75      363.29709    
    320700   311.64151     -218720.44      0             -218263.35     -795.469      
    320800   311.55406     -218723.05      0             -218266.09     -39.267946    
    320900   305.34183     -218718.55      0             -218270.7      -631.28235    
    321000   306.55532     -218721.24      0             -218271.61      445.22358    
    321100   311.31284     -218725.49      0             -218268.89      714.40308    
    321200   313.26569     -218720.04      0             -218260.57     -559.64611    
    321300   312.65133     -218717.96      0             -218259.39      39.313286    
    321400   311.28282     -218723.97      0             -218267.4       141.79661    
    321500   308.50513     -218723.4       0             -218270.91      233.37876    
    321600   309.72389     -218726.2       0             -218271.92      649.58137    
    321700   311.1502      -218725.37      0             -218269         394.09191    
    321800   312.62507     -218722.32      0             -218263.78      121.96091    
    321900   315.60119     -218720.33      0             -218257.44     -178.13918    
    322000   312.93622     -218721.62      0             -218262.63      334.73534    
    322100   310.06393     -218725.38      0             -218270.61      281.08036    
    322200   312.52665     -218730.17      0             -218271.79      135.94643    
    322300   307.28916     -218723.19      0             -218272.49     -136.21841    
    322400   307.65242     -218719.95      0             -218268.71      273.81137    
    322500   313.39629     -218721.82      0             -218262.15     -317.88019    
    322600   312.96955     -218720.72      0             -218261.68      100.83935    
    322700   310.19936     -218726.95      0             -218271.98     -66.665316    
    322800   306.8644      -218725.53      0             -218275.45     -17.801766    
    322900   308.275       -218724.72      0             -218272.57      655.57403    
    323000   307.61053     -218718.84      0             -218267.66      726.11006    
    323100   308.72993     -218716         0             -218263.18      505.98557    
    323200   310.35874     -218720.74      0             -218265.53      774.32249    
    323300   303.0998      -218720.6       0             -218276.04     -313.43478    
    323400   309.75583     -218729.23      0             -218274.9       135.30331    
    323500   311.31441     -218726.33      0             -218269.72     -250.4009     
    323600   311.90337     -218722.46      0             -218264.99     -70.821242    
    323700   311.20428     -218721.72      0             -218265.27     -704.5602     
    323800   312.48021     -218731.18      0             -218272.87      512.3205     
    323900   308.88519     -218732.79      0             -218279.74      348.12066    
    324000   308.40154     -218729.07      0             -218276.74     -228.57295    
    324100   311.25214     -218726.35      0             -218269.83     -113.76026    
    324200   310.75274     -218722.26      0             -218266.48     -660.27767    
    324300   311.15379     -218723.57      0             -218267.19      763.48786    
    324400   310.09142     -218726.43      0             -218271.61     -673.59348    
    324500   308.56252     -218731.16      0             -218278.58     -942.1422     
    324600   302.43177     -218730.18      0             -218286.59     -304.54609    
    324700   305.18358     -218725.71      0             -218278.09     -391.91792    
    324800   311.75329     -218728.61      0             -218271.36      922.47204    
    324900   312.42485     -218725.62      0             -218267.38      167.98341    
    325000   311.49486     -218721.97      0             -218265.09      332.40794    
    325100   312.15541     -218724.52      0             -218266.68      221.95193    
    325200   308.66233     -218726.78      0             -218274.06      164.23951    
    325300   307.64863     -218727.45      0             -218276.21     -540.17178    
    325400   309.66061     -218726.1       0             -218271.91     -215.67853    
    325500   309.46355     -218722.64      0             -218268.74     -362.66749    
    325600   312.02157     -218726.46      0             -218268.81      644.40185    
    325700   307.80282     -218722.07      0             -218270.61      723.12888    
    325800   310.38087     -218726.03      0             -218270.79      736.99424    
    325900   305.4925      -218720.29      0             -218272.22      731.308      
    326000   309.67874     -218728.29      0             -218274.08     -150.93895    
    326100   308.61282     -218724.67      0             -218272.02     -347.78319    
    326200   313.81093     -218725.91      0             -218265.64     -866.00326    
    326300   312.68055     -218721.73      0             -218263.12     -457.26378    
    326400   309.71068     -218722.88      0             -218268.62      1144.0475    
    326500   308.42385     -218729         0             -218276.63     -162.65047    
    326600   310.88482     -218731.39      0             -218275.41     -120.85055    
    326700   311.47414     -218727.16      0             -218270.32      225.59296    
    326800   310.64195     -218722.93      0             -218267.31      570.4812     
    326900   315.11424     -218730.59      0             -218268.41      785.17845    
    327000   309.54517     -218723.6       0             -218269.59      47.904043    
    327100   308.77812     -218723.25      0             -218270.36     -165.73914    
    327200   311.21135     -218727.84      0             -218271.38      26.164749    
    327300   308.48586     -218726.16      0             -218273.7      -29.418562    
    327400   306.70771     -218726.72      0             -218276.86      1346.8802    
    327500   309.46555     -218726.73      0             -218272.83     -49.298081    
    327600   310.63453     -218722.52      0             -218266.91     -600.48683    
    327700   309.80671     -218719.41      0             -218265.01      321.9594     
    327800   307.52278     -218720.15      0             -218269.1      -243.90609    
    327900   307.40446     -218728.49      0             -218277.62     -324.71214    
    328000   307.84996     -218727.94      0             -218276.41      464.0588     
    328100   312.78086     -218731.41      0             -218272.65      158.20154    
    328200   308.88881     -218722.41      0             -218269.36      1053.7281    
    328300   310.15908     -218723.06      0             -218268.15      549.07916    
    328400   313.95975     -218729.49      0             -218269        -678.35367    
    328500   311.14158     -218727.22      0             -218270.86     -723.22902    
    328600   310.48159     -218726.27      0             -218270.88     -262.84262    
    328700   310.42093     -218728.3       0             -218273.01      58.455756    
    328800   307.23342     -218729.24      0             -218278.62     -333.72254    
    328900   306.51342     -218727.46      0             -218277.89     -166.12184    
    329000   308.78547     -218723.09      0             -218270.19     -730.37622    
    329100   310.60433     -218721.67      0             -218266.1      -938.72859    
    329200   310.23536     -218721.45      0             -218266.42      553.67555    
    329300   311.04725     -218726.55      0             -218270.33     -48.729022    
    329400   305.07734     -218727.11      0             -218279.65     -310.08331    
    329500   307.84311     -218730.15      0             -218278.63     -1000.8992    
    329600   309.48079     -218727.02      0             -218273.1       296.50197    
    329700   308.12548     -218721.76      0             -218269.83      399.78175    
    329800   310.32486     -218724.2       0             -218269.05      901.26296    
    329900   311.15123     -218725.88      0             -218269.51      153.61444    
    330000   307.35356     -218726.16      0             -218275.36     -3.5171975    
    330100   307.37552     -218731.12      0             -218280.29     -120.02113    
    330200   307.96677     -218727.34      0             -218275.64      1109.3225    
    330300   312.49625     -218727.23      0             -218268.88      1738.0099    
    330400   309.99778     -218722.84      0             -218268.16     -34.117179    
    330500   311.55171     -218725.44      0             -218268.48      226.93748    
    330600   309.2619      -218725.74      0             -218272.14     -1491.7095    
    330700   307.76564     -218730.62      0             -218279.21     -1245.5745    
    330800   304.99082     -218727.54      0             -218280.2      -623.56407    
    330900   308.96772     -218723.16      0             -218270        -411.12651    
    331000   311.91644     -218725.31      0             -218267.82      657.36503    
    331100   309.6285      -218722.23      0             -218268.09      422.42029    
    331200   306.45755     -218720.89      0             -218271.41     -417.63429    
    331300   306.12007     -218726.05      0             -218277.06      133.44504    
    331400   308.59418     -218727.95      0             -218275.33      48.475422    
    331500   312.80149     -218724.46      0             -218265.66      327.97987    
    331600   313.39279     -218723.27      0             -218263.61     -441.7749     
    331700   310.5155      -218723.02      0             -218267.58      251.17582    
    331800   311.1083      -218728.1       0             -218271.79      211.4527     
    331900   308.86382     -218728.27      0             -218275.26     -835.83124    
    332000   302.72749     -218723.37      0             -218279.35     -405.473      
    332100   306.36713     -218727.43      0             -218278.07     -482.35987    
    332200   309.0724      -218723.5       0             -218270.18      99.103259    
    332300   311.76356     -218723.03      0             -218265.77      313.47536    
    332400   312.23434     -218723.9       0             -218265.94     -116.96327    
    332500   307.79741     -218723.54      0             -218272.09     -137.33565    
    332600   307.38505     -218728.72      0             -218277.87     -97.112875    
    332700   310.05661     -218730.29      0             -218275.53      265.2324     
    332800   310.96673     -218728.88      0             -218272.78      328.8225     
    332900   309.03444     -218724.14      0             -218270.87      740.99288    
    333000   311.60813     -218724.98      0             -218267.94      121.88235    
    333100   312.64124     -218723.76      0             -218265.2      -730.91199    
    333200   314.34285     -218724.9       0             -218263.85     -451.2144     
    333300   309.41423     -218721.39      0             -218267.56     -96.492472    
    333400   304.98781     -218720.98      0             -218273.65      579.16234    
    333500   308.86106     -218729.09      0             -218276.08     -1523.1881    
    333600   309.68617     -218726.28      0             -218272.06     -1357.2939    
    333700   309.86883     -218718.17      0             -218263.68     -432.73463    
    333800   310.65321     -218719.3       0             -218263.66      646.08912    
    333900   311.97466     -218724.91      0             -218267.33      267.10539    
    334000   310.35235     -218725.2       0             -218270         699.67823    
    334100   309.65372     -218727.21      0             -218273.04      811.00333    
    334200   309.08689     -218730.59      0             -218277.25     -799.66553    
    334300   306.69685     -218732.09      0             -218282.25      855.14801    
    334400   307.89355     -218728.66      0             -218277.07     -498.08288    
    334500   310.96129     -218725.78      0             -218269.69     -657.55       
    334600   311.05598     -218722.43      0             -218266.2      -436.91201    
    334700   310.68921     -218721.97      0             -218266.28     -603.94926    
    334800   307.92204     -218724.43      0             -218272.8      -748.84912    
    334900   306.7018      -218727.41      0             -218277.57     -361.68428    
    335000   306.28035     -218723.48      0             -218274.26     -898.55617    
    335100   309.47227     -218724.38      0             -218270.48     -274.59345    
    335200   308.29569     -218721.64      0             -218269.45      633.26437    
    335300   307.76586     -218721.25      0             -218269.85      751.6996     
    335400   307.52054     -218722.81      0             -218271.76     -593.71706    
    335500   309.58704     -218727.83      0             -218273.75     -12.190582    
    335600   306.54013     -218725.27      0             -218275.67      439.45639    
    335700   311.45138     -218729.4       0             -218272.59     -463.91317    
    335800   312.14609     -218723.8       0             -218265.97      132.01814    
    335900   311.06277     -218720.97      0             -218264.73     -298.90702    
    336000   312.58803     -218728.55      0             -218270.07      232.08743    
    336100   309.24464     -218732.14      0             -218278.57     -1044.8126    
    336200   309.00565     -218729.5       0             -218276.28      431.02839    
    336300   309.40364     -218725.06      0             -218271.26      137.51201    
    336400   310.30454     -218722.46      0             -218267.33     -759.60571    
    336500   312.96653     -218726.21      0             -218267.17     -46.106662    
    336600   310.06646     -218725.33      0             -218270.55      300.67229    
    336700   310.50778     -218736.22      0             -218280.79     -121.2593     
    336800   305.77555     -218728.16      0             -218279.68     -642.26014    
    336900   307.77491     -218723.56      0             -218272.14      550.34879    
    337000   309.98536     -218723.15      0             -218268.49      1282.2137    
    337100   310.26006     -218722.19      0             -218267.13     -353.25272    
    337200   312.29659     -218727.09      0             -218269.04     -483.8847     
    337300   308.47382     -218729.14      0             -218276.69     -1639.1568    
    337400   310.15689     -218733.57      0             -218278.66     -846.5087     
    337500   310.97108     -218726.92      0             -218270.82     -181.70782    
    337600   312.93553     -218723.92      0             -218264.93     -482.33761    
    337700   310.40183     -218721.95      0             -218266.68     -155.16838    
    337800   307.42739     -218723.39      0             -218272.48      538.09735    
    337900   307.19623     -218724.77      0             -218274.2      -588.141      
    338000   310.54203     -218726.34      0             -218270.87     -567.32941    
    338100   313.50826     -218721.68      0             -218261.86      532.62053    
    338200   310.81164     -218719.45      0             -218263.58      781.4526     
    338300   310.51969     -218724.83      0             -218269.39      978.16939    
    338400   310.76939     -218728.33      0             -218272.52      720.78986    
    338500   305.18063     -218720.15      0             -218272.53     -215.06988    
    338600   314.15983     -218731.04      0             -218270.26      247.24928    
    338700   308.9646      -218720.25      0             -218267.09      411.54345    
    338800   316.44854     -218720.97      0             -218256.83     -618.6642     
    338900   315.10041     -218721.2       0             -218259.03      44.142492    
    339000   312.76087     -218724.63      0             -218265.9      -432.75172    
    339100   308.04972     -218721.99      0             -218270.17     -989.31843    
    339200   307.68712     -218724.08      0             -218272.79      625.97478    
    339300   308.98264     -218726.3       0             -218273.11     -2.6629177    
    339400   308.03599     -218721.59      0             -218269.78     -676.08902    
    339500   312.47073     -218720.93      0             -218262.62     -346.06615    
    339600   308.82709     -218716.57      0             -218263.61      211.86774    
    339700   308.07822     -218722.4       0             -218270.54      52.959353    
    339800   311.52776     -218729.79      0             -218272.87     -258.98357    
    339900   308.01095     -218724.78      0             -218273.02      343.70147    
    340000   307.63161     -218722.2       0             -218271        -33.498247    
    340100   312.00741     -218723.31      0             -218265.68     -687.32808    
    340200   315.45319     -218720.23      0             -218257.55     -354.30902    
    340300   316.35038     -218714.56      0             -218250.56     -2.3341602    
    340400   316.22409     -218720.6       0             -218256.79     -11.648681    
    340500   310.60103     -218721.76      0             -218266.19     -1076.3958    
    340600   308.34748     -218723.9       0             -218271.64     -560.59587    
    340700   307.53441     -218726.47      0             -218275.41     -280.56193    
    340800   310.05236     -218730.16      0             -218275.4      -154.97261    
    340900   307.41068     -218720.55      0             -218269.67     -617.06462    
    341000   311.37417     -218720.21      0             -218263.52      599.97693    
    341100   313.0681      -218723.31      0             -218264.12     -202.66711    
    341200   310.80528     -218724.06      0             -218268.2       338.75209    
    341300   305.25393     -218717.94      0             -218270.22     -420.29867    
    341400   311.334       -218726.62      0             -218269.99     -249.53322    
    341500   311.03782     -218726.08      0             -218269.88      9.1743754    
    341600   307.08445     -218720.51      0             -218270.1      -911.94168    
    341700   309.94696     -218724.1       0             -218269.5      -1156.0768    
    341800   311.76351     -218724.26      0             -218266.99      244.86303    
    341900   310.61739     -218719.72      0             -218264.13      974.61765    
    342000   310.58893     -218723.16      0             -218267.62      348.993      
    342100   309.44195     -218728.25      0             -218274.39      134.70651    
    342200   306.03786     -218725.29      0             -218276.42     -43.543857    
    342300   308.94791     -218722.9       0             -218269.76     -1264.6661    
    342400   310.05506     -218717.17      0             -218262.41     -173.83188    
    342500   310.77807     -218720.81      0             -218264.99      283.84573    
    342600   305.38214     -218718.02      0             -218270.11     -275.69225    
    342700   311.71199     -218729.42      0             -218272.23      560.48055    
    342800   309.10707     -218726.64      0             -218273.27      413.77109    
    342900   310.2916      -218724.97      0             -218269.86     -633.79699    
    343000   311.95513     -218721.31      0             -218263.76     -750.55573    
    343100   312.18779     -218719.56      0             -218261.67     -182.5075     
    343200   309.85        -218722.07      0             -218267.61      808.32186    
    343300   309.09992     -218727.79      0             -218274.43      66.342514    
    343400   307.77439     -218724.67      0             -218273.26      512.62603    
    343500   312.19936     -218726.11      0             -218268.2       643.87719    
    343600   311.95575     -218724.12      0             -218266.56      764.39051    
    343700   311.02731     -218726.43      0             -218270.24     -310.83825    
    343800   305.18755     -218728.84      0             -218281.22     -326.77663    
    343900   306.33702     -218728.64      0             -218279.33     -963.83866    
    344000   308.25441     -218724.65      0             -218272.52      20.039329    
    344100   307.73506     -218720.47      0             -218269.11      364.23097    
    344200   311.91392     -218724.2       0             -218266.71      190.95535    
    344300   312.04491     -218724.05      0             -218266.37      1364.9172    
    344400   307.43951     -218721.23      0             -218270.31      94.596504    
    344500   308.11568     -218727.65      0             -218275.74      1128.7579    
    344600   308.36939     -218728.2       0             -218275.91     -431.7367     
    344700   308.82117     -218721.06      0             -218268.1       550.71036    
    344800   312.70405     -218722.07      0             -218263.42     -132.26098    
    344900   315.097       -218728.43      0             -218266.27     -206.16169    
    345000   308.55781     -218722.77      0             -218270.21     -1044.4494    
    345100   308.90085     -218726.2       0             -218273.13     -163.74912    
    345200   311.32107     -218728.41      0             -218271.79      632.90575    
    345300   313.48655     -218722.77      0             -218262.97      590.00344    
    345400   314.29633     -218722.33      0             -218261.35      465.10702    
    345500   308.53437     -218720.81      0             -218268.28      770.00357    
    345600   310.41408     -218728.38      0             -218273.09     -1453.8634    
    345700   311.81344     -218730         0             -218272.66     -871.72608    
    345800   309.70521     -218723.87      0             -218269.63     -212.11007    
    345900   313.54568     -218721.43      0             -218261.55     -383.38901    
    346000   317.36713     -218724.28      0             -218258.79      283.27226    
    346100   313.13227     -218723.75      0             -218264.47     -227.51017    
    346200   311.42874     -218724.94      0             -218268.16     -532.83067    
    346300   312.54346     -218729.03      0             -218270.62     -520.42802    
    346400   310.97581     -218726.66      0             -218270.55     -1018.0035    
    346500   314.02537     -218726.1       0             -218265.51     -1255.2401    
    346600   313.53135     -218718.5       0             -218258.64     -14.520813    
    346700   312.08607     -218718.74      0             -218261        -383.6066     
    346800   310.71495     -218725.83      0             -218270.1       125.52582    
    346900   309.35483     -218725.34      0             -218271.61     -128.7318     
    347000   310.06447     -218725.98      0             -218271.21      337.62885    
    347100   309.19217     -218723.66      0             -218270.16     -896.35035    
    347200   310.42404     -218721.3       0             -218266        -798.27093    
    347300   310.72771     -218718.81      0             -218263.06     -983.32349    
    347400   312.58935     -218724.02      0             -218265.54     -443.45642    
    347500   308.65724     -218726.38      0             -218273.67     -1058.7386    
    347600   308.50445     -218728.13      0             -218275.64     -951.76872    
    347700   308.47591     -218724.38      0             -218271.93      214.4198     
    347800   312.37538     -218723.52      0             -218265.35     -426.59898    
    347900   311.36039     -218722.35      0             -218265.68     -727.07747    
    348000   310.88575     -218724.22      0             -218268.24     -792.31795    
    348100   309.74467     -218726.03      0             -218271.72      603.92195    
    348200   310.94133     -218730.73      0             -218274.67      749.71991    
    348300   308.17829     -218728.11      0             -218276.1      -388.5858     
    348400   307.4496      -218723.64      0             -218272.7      -631.60249    
    348500   310.07376     -218721.35      0             -218266.56      83.687737    
    348600   311.35136     -218719.66      0             -218262.99     -427.16968    
    348700   309.93099     -218722.73      0             -218268.15      78.78849     
    348800   308.86146     -218727.09      0             -218274.08     -653.3077     
    348900   304.90929     -218722.07      0             -218274.86     -1185.2548    
    349000   308.23128     -218723.94      0             -218271.85      393.16464    
    349100   307.89295     -218720.43      0             -218268.84     -31.849623    
    349200   310.99255     -218721.84      0             -218265.7      -481.67514    
    349300   311.54676     -218715.62      0             -218258.67     -545.80352    
    349400   312.19347     -218717.13      0             -218259.24     -1494.8758    
    349500   312.3371      -218727.53      0             -218269.42     -278.27674    
    349600   305.79812     -218720.75      0             -218272.23      110.69548    
    349700   310.51627     -218725.92      0             -218270.48     -153.65206    
    349800   314.68497     -218728.26      0             -218266.71      854.38693    
    349900   312.28981     -218726.24      0             -218268.2       5.5700765    
    350000   308.66758     -218728.47      0             -218275.74     -456.88912    
    350100   307.65894     -218730.07      0             -218278.82      214.67685    
    350200   306.03165     -218722.38      0             -218273.52     -735.34952    
    350300   312.56266     -218726.91      0             -218268.47     -406.27575    
    350400   311.72914     -218725.13      0             -218267.92     -94.430078    
    350500   308.89789     -218722.52      0             -218269.46      232.54658    
    350600   308.12951     -218725.54      0             -218273.6      -400.49924    
    350700   308.47816     -218732.01      0             -218279.56     -717.13511    
    350800   306.2652      -218728.46      0             -218279.25      710.16788    
    350900   311.15764     -218725.21      0             -218268.83      676.07975    
    351000   312.63335     -218724.95      0             -218266.41      932.1306     
    351100   313.78627     -218727.19      0             -218266.96      479.99898    
    351200   306.02042     -218722.42      0             -218273.58      207.33876    
    351300   305.65078     -218725.17      0             -218276.87      99.383425    
    351400   308.51653     -218726.05      0             -218273.54      811.44158    
    351500   311.68926     -218720.33      0             -218263.17      294.63506    
    351600   313.90346     -218723.19      0             -218262.79      207.76749    
    351700   312.1053      -218725.44      0             -218267.67     -85.117775    
    351800   311.83021     -218729.56      0             -218272.19     -529.42967    
    351900   306.75296     -218723.96      0             -218274.04      401.98592    
    352000   313.60131     -218729.25      0             -218269.29      213.20273    
    352100   310.93395     -218717.3       0             -218261.25     -239.9809     
    352200   311.27103     -218718.56      0             -218262.02     -274.32137    
    352300   307.52015     -218719.1       0             -218268.05      156.7748     
    352400   309.37278     -218724.74      0             -218270.97      381.58972    
    352500   309.54656     -218726.03      0             -218272.01      656.84592    
    352600   309.32966     -218724.97      0             -218271.27     -148.50965    
    352700   309.83309     -218721.32      0             -218266.88      347.59169    
    352800   314.65419     -218721.91      0             -218260.4       173.82928    
    352900   311.53754     -218719.97      0             -218263.04     -1004.5054    
    353000   311.08355     -218727.7       0             -218271.43     -189.15418    
    353100   309.71111     -218727.71      0             -218273.45     -646.21478    
    353200   309.48105     -218724.75      0             -218270.83     -336.01185    
    353300   309.21781     -218721.09      0             -218267.56     -343.35243    
    353400   310.59141     -218717.09      0             -218261.54      219.19764    
    353500   314.55808     -218718.28      0             -218256.91      194.47847    
    353600   313.37599     -218723.98      0             -218264.34      319.273      
    353700   311.6797      -218728.07      0             -218270.92     -167.76659    
    353800   310.67801     -218728.93      0             -218273.25     -621.3131     
    353900   307.69257     -218724.87      0             -218273.57     -1485.6981    
    354000   314.15472     -218727.38      0             -218266.6       222.92533    
    354100   312.37653     -218721.29      0             -218263.12      520.05049    
    354200   309.7425      -218720.62      0             -218266.31     -202.87305    
    354300   305.88776     -218725.66      0             -218277.01     -147.0008     
    354400   307.19307     -218727.1       0             -218276.54     -147.23805    
    354500   309.60463     -218724.71      0             -218270.6       101.80806    
    354600   313.05718     -218725.58      0             -218266.42      646.11305    
    354700   312.6288      -218724.93      0             -218266.39     -831.11575    
    354800   308.65        -218725.5       0             -218272.8       149.59424    
    354900   309.91868     -218734.23      0             -218279.67      886.85474    
    355000   308.67277     -218729.98      0             -218277.24     -77.995446    
    355100   309.31813     -218725.43      0             -218271.75     -535.23652    
    355200   309.43343     -218722.26      0             -218268.4       1057.3517    
    355300   308.29589     -218720.93      0             -218268.75      1526.9135    
    355400   308.62001     -218723.28      0             -218270.62      171.87472    
    355500   309.57538     -218729.34      0             -218275.28     -251.11126    
    355600   306.72136     -218731.49      0             -218281.62     -192.4586     
    355700   306.27667     -218728.11      0             -218278.89      539.31981    
    355800   310.99327     -218726.77      0             -218270.63      1009.9623    
    355900   310.69921     -218724.41      0             -218268.71     -611.38235    
    356000   313.17594     -218729.81      0             -218270.47     -737.5784     
    356100   307.98597     -218726.32      0             -218274.59     -818.96601    
    356200   306.70894     -218729.48      0             -218279.62     -653.55273    
    356300   308.86288     -218732.76      0             -218279.75     -52.766961    
    356400   308.63946     -218723.15      0             -218270.47      520.52562    
    356500   313.57267     -218726.59      0             -218266.67      519.43905    
    356600   312.8725      -218727.29      0             -218268.4      -572.3217     
    356700   306.22362     -218722.72      0             -218273.58      251.51266    
    356800   305.86375     -218727.56      0             -218278.94      430.95231    
    356900   307.06013     -218733.12      0             -218282.75     -115.77525    
    357000   304.4699      -218725.66      0             -218279.09      74.299418    
    357100   308.44138     -218722.91      0             -218270.52      441.15967    
    357200   311.27227     -218723.14      0             -218266.59     -369.93454    
    357300   309.00098     -218718.88      0             -218265.66      79.809826    
    357400   307.9625      -218721.95      0             -218270.25     -620.9915     
    357500   307.09927     -218727.71      0             -218277.29      237.05915    
    357600   306.89043     -218726.93      0             -218276.81     -721.25443    
    357700   307.26827     -218722.37      0             -218271.69     -798.28505    
    357800   306.96205     -218720.52      0             -218270.3       934.97533    
    357900   309.10639     -218724         0             -218270.63      122.5803     
    358000   310.40305     -218725.59      0             -218270.32     -1047.2368    
    358100   312.56371     -218725.42      0             -218266.98      115.76176    
    358200   312.8306      -218721.29      0             -218262.45      457.77068    
    358300   311.97523     -218722.71      0             -218265.13     -122.50075    
    358400   309.99422     -218726.76      0             -218272.09     -807.01216    
    358500   311.19612     -218731.37      0             -218274.94      34.54596     
    358600   307.24708     -218723.89      0             -218273.25     -828.55781    
    358700   314.41319     -218728.95      0             -218267.79     -1752.4148    
    358800   311.68451     -218716.54      0             -218259.39     -740.27032    
    358900   317.06718     -218715.37      0             -218250.32     -255.79723    
    359000   312.26894     -218713.98      0             -218255.97     -256.03763    
    359100   314.49325     -218725.4       0             -218264.13      716.70293    
    359200   311.55983     -218728.34      0             -218271.37      92.850032    
    359300   310.8492      -218730.5       0             -218274.57     -649.36166    
    359400   312.50287     -218731.98      0             -218273.63      671.65186    
    359500   311.3654      -218723.93      0             -218267.24     -333.38092    
    359600   314.99493     -218724.16      0             -218262.15      46.818801    
    359700   312.59843     -218722.66      0             -218264.17      612.65788    
    359800   309.64256     -218726.03      0             -218271.87      257.76077    
    359900   310.70134     -218728.25      0             -218272.54      925.42887    
    360000   307.49587     -218720.95      0             -218269.95     -341.5052     
    360100   313.26066     -218725.7       0             -218266.24     -254.8272     
    360200   311.89246     -218723.4       0             -218265.95     -782.31768    
    360300   307.39768     -218723.33      0             -218272.46     -1755.0007    
    360400   306.88757     -218727.36      0             -218277.24     -1144.6431    
    360500   306.29946     -218722.99      0             -218273.74     -730.28327    
    360600   309.067       -218720.89      0             -218267.58      144.06723    
    360700   307.58863     -218718.87      0             -218267.72      192.47591    
    360800   311.10691     -218725.16      0             -218268.86      1246.553     
    360900   311.00349     -218728.19      0             -218272.03      403.39994    
    361000   310.65207     -218733.13      0             -218277.49     -227.99696    
    361100   308.50126     -218728.58      0             -218276.1      -243.1154     
    361200   309.98435     -218721.01      0             -218266.35     -358.4005     
    361300   311.98486     -218721.82      0             -218264.23     -295.86534    
    361400   310.90464     -218723.65      0             -218267.64      112.73164    
    361500   308.78679     -218726.95      0             -218274.04     -665.12369    
    361600   307.0732      -218726.15      0             -218275.76      186.0425     
    361700   312.03906     -218728.97      0             -218271.3       73.053652    
    361800   313.58941     -218719.76      0             -218259.81      526.86957    
    361900   311.72639     -218718.28      0             -218261.07      951.14134    
    362000   309.70061     -218722.85      0             -218268.61      468.6211     
    362100   308.2193      -218725.92      0             -218273.85     -1444.9055    
    362200   306.00994     -218723.24      0             -218274.41      249.17969    
    362300   312.10243     -218728.32      0             -218270.56      498.23921    
    362400   310.52049     -218719.02      0             -218263.57     -212.84447    
    362500   313.53963     -218723.04      0             -218263.17     -299.45464    
    362600   306.79698     -218722.73      0             -218272.74     -45.677492    
    362700   309.11767     -218729.57      0             -218276.18      488.18902    
    362800   308.57366     -218726.02      0             -218273.43      571.78992    
    362900   307.84989     -218719.28      0             -218267.76     -570.9044     
    363000   314.56806     -218725.68      0             -218264.3      -371.45973    
    363100   310.27354     -218722.59      0             -218267.51      180.36404    
    363200   310.62748     -218733.43      0             -218277.83     -931.5495     
    363300   307.14911     -218729.29      0             -218278.79     -1.1286187    
    363400   311.2267      -218730.37      0             -218273.89      20.278928    
    363500   309.94938     -218723.67      0             -218269.07      566.34994    
    363600   307.97536     -218718.99      0             -218267.27      629.80725    
    363700   310.09624     -218722.09      0             -218267.27      465.87479    
    363800   312.76019     -218732.88      0             -218274.15     -874.93927    
    363900   307.07812     -218729.35      0             -218278.95      431.59683    
    364000   310.99662     -218730.49      0             -218274.35      825.58615    
    364100   310.65203     -218723.56      0             -218267.92      103.15606    
    364200   311.48269     -218724.33      0             -218267.48      1259.9123    
    364300   306.33252     -218718.9       0             -218269.6      -19.814883    
    364400   310.19934     -218724.79      0             -218269.82     -297.04085    
    364500   308.35306     -218729.63      0             -218277.37     -417.11979    
    364600   305.92511     -218730.4       0             -218281.7       910.16102    
    364700   308.49256     -218727.32      0             -218274.85     -236.44037    
    364800   310.56646     -218724.69      0             -218269.18     -487.08582    
    364900   310.73249     -218723.11      0             -218267.36     -540.99428    
    365000   311.21936     -218725.72      0             -218269.25      704.84874    
    365100   308.41696     -218728.72      0             -218276.36     -471.51581    
    365200   308.1348      -218733.67      0             -218281.72     -717.07318    
    365300   310.44577     -218732.66      0             -218277.32     -695.00897    
    365400   309.83811     -218727.54      0             -218273.1      -301.00424    
    365500   313.73706     -218729.59      0             -218269.43      1118.2286    
    365600   307.78853     -218719.98      0             -218268.55     -124.99315    
    365700   310.87969     -218724.74      0             -218268.76      710.89025    
    365800   310.08045     -218727.39      0             -218272.59      370.03713    
    365900   310.13762     -218732.43      0             -218277.55     -95.090121    
    366000   309.76546     -218730.44      0             -218276.1      -899.65463    
    366100   312.62651     -218726.03      0             -218267.5      -26.017591    
    366200   311.59103     -218722.83      0             -218265.82     -636.86662    
    366300   309.49836     -218722.72      0             -218268.77     -218.28393    
    366400   306.34419     -218722.1       0             -218272.78     -593.69075    
    366500   306.97533     -218726.44      0             -218276.19      292.23016    
    366600   303.84914     -218728.71      0             -218283.05      425.50174    
    366700   304.98485     -218726.39      0             -218279.06     -803.75175    
    366800   312.01723     -218728.85      0             -218271.21     -1173.2392    
    366900   312.00791     -218726.64      0             -218269.01     -105.69491    
    367000   308.75595     -218721.5       0             -218268.64      265.70028    
    367100   311.31612     -218726.23      0             -218269.61      356.96127    
    367200   306.18796     -218723.23      0             -218274.14     -705.58798    
    367300   308.34983     -218728.68      0             -218276.42     -746.23563    
    367400   312.15063     -218728.72      0             -218270.89      1117.6227    
    367500   312.77464     -218723.83      0             -218265.07      662.04811    
    367600   309.27077     -218718.44      0             -218264.82     -869.20655    
    367700   310.75534     -218723.88      0             -218268.09     -1086.3225    
    367800   310.73051     -218728.06      0             -218272.3      -1232.1156    
    367900   306.89643     -218724.01      0             -218273.88     -486.20291    
    368000   310.86333     -218728.34      0             -218272.39      944.30195    
    368005   311.22119     -218728.79      0             -218272.32     -57.814322    
Loop time of 3305.1 on 8 procs for 345000 steps with 11348 atoms

Performance: 9.019 ns/day, 2.661 hours/ns, 104.384 timesteps/s
96.6% CPU use with 8 MPI tasks x 1 OpenMP threads

MPI task timing breakdown:
Section |  min time  |  avg time  |  max time  |%varavg| %total
---------------------------------------------------------------
Pair    | 1054.6     | 1096.1     | 1133.2     |  69.4 | 33.16
Kspace  | 1886.6     | 1925.7     | 1968.4     |  53.9 | 58.26
Neigh   | 127.47     | 131.62     | 135.15     |  19.9 |  3.98
Comm    | 99.474     | 102.81     | 105.62     |  19.5 |  3.11
Output  | 5.1849     | 5.3967     | 5.4304     |   3.4 |  0.16
Modify  | 32.068     | 32.4       | 32.894     |   5.2 |  0.98
Other   |            | 11.14      |            |       |  0.34

Nlocal:         1418.5 ave        1440 max        1400 min
Histogram: 2 1 0 0 0 2 1 1 0 1
Nghost:        3898.12 ave        3917 max        3871 min
Histogram: 1 0 1 0 1 0 2 0 2 1
Neighs:         105158 ave      110029 max      102647 min
Histogram: 2 0 2 2 1 0 0 0 0 1

Total # of neighbors = 841265
Ave neighs/atom = 74.133327
Neighbor list builds = 51396
Dangerous builds = 0

undump              1
unfix               1
unfix               RDF
uncompute           myRDF

print "Temp = ${Tmp}"
Temp = 310

variable Tmp delete
next a
jump SELF loop_start
print "loop body"
loop body
variable Tmp equal (${a}-1)*5+300
variable Tmp equal (4-1)*5+300

reset_timestep 0

velocity	all create 0.00001 87287

pair_style buck/coul/long 8.0
pair_coeff 1 1 0.0        1.0      0.0
pair_coeff 2 2 2029.2204  0.343645 192.58000
pair_coeff 3 3 0.0        1.0      0.0
pair_coeff 4 4 0.0        1.0      0.0
pair_coeff 1 2 41051.9380 0.151160 0.0000
pair_coeff 1 3 0.0        1.0      0.0
pair_coeff 1 4 0.0        1.0      0.0
pair_coeff 2 3 26655.4720 0.181968 86.5860
pair_coeff 2 4 17943.3840 0.226627 127.6500
pair_coeff 3 4 0.0        1.0      0.0
kspace_style pppm 1.0e-4

neighbor	0.3 bin
neigh_modify	every 1 delay 0 check yes

log log.lammps00_${Tmp}
log log.lammps00_315
