
timestep 0.001

min_style cg
minimize 1.0e-4 1.0e-6 1000 10000
PPPM initialization ...
WARNING: System is not charge neutral, net charge = -578.4 (src/kspace.cpp:327)
  using 12-bit tables for long-range coulomb (src/kspace.cpp:342)
  G vector (1/distance) = 0.3689864
  grid = 54 48 64
  stencil order = 5
  estimated absolute RMS force accuracy = 0.0017783949
  estimated relative force accuracy = 0.00012350269
  using double precision FFTW3
  3d grid and FFT values/proc = 34336 20736
Generated 0 of 6 mixed pair_coeff terms from geometric mixing rule
Neighbor list info ...
  update every 1 steps, delay 0 steps, check yes
  max neighbors/atom: 2000, page size: 100000
  master list distance cutoff = 8.3
  ghost atom cutoff = 8.3
  binsize = 4.15, bins = 14 12 18
  1 neighbor lists, perpetual/occasional/extra = 1 0 0
  (1) pair buck/coul/long, perpetual
      attributes: half, newton on
      pair build: half/bin/atomonly/newton
      stencil: half/bin/3d
      bin: standard
Per MPI rank memory allocation (min/avg/max) = 8.305 | 8.306 | 8.307 Mbytes
   Step          Temp          E_pair         E_mol          TotEng         Press     
         0   1e-05         -218745.27      0             -218745.27     -3569.6686    
         5   1e-05         -219130.88      0             -219130.88     -3274.7369    
Loop time of 0.125125 on 8 procs for 5 steps with 11348 atoms

95.0% CPU use with 8 MPI tasks x 1 OpenMP threads

Minimization stats:
  Stopping criterion = energy tolerance
  Energy initial, next-to-last, final = 
     -218745.271337189  -219110.396998031  -219130.882189707
  Force two-norm initial, final = 189.87668 34.079249
  Force max component initial, final = 5.0593856 1.7042976
  Final line search alpha, max atom move = 0.057328855 0.097705432
  Iterations, force evaluations = 5 10

MPI task timing breakdown:
Section |  min time  |  avg time  |  max time  |%varavg| %total
---------------------------------------------------------------
Pair    | 0.043457   | 0.04873    | 0.054032   |   1.6 | 38.94
Kspace  | 0.065257   | 0.07017    | 0.07506    |   1.3 | 56.08
Neigh   | 0.0022541  | 0.0026738  | 0.0032723  |   0.7 |  2.14
Comm    | 0.0020958  | 0.0022114  | 0.0023699  |   0.2 |  1.77
Output  | 0          | 0          | 0          |   0.0 |  0.00
Modify  | 0          | 0          | 0          |   0.0 |  0.00
Other   |            | 0.00134    |            |       |  1.07

Nlocal:         1418.5 ave        1437 max        1403 min
Histogram: 1 1 1 2 0 0 0 2 0 1
Nghost:        3907.88 ave        3926 max        3886 min
Histogram: 1 0 0 1 2 1 0 1 0 2
Neighs:         105268 ave      109844 max      102925 min
Histogram: 2 0 2 2 1 0 0 0 0 1

Total # of neighbors = 842144
Ave neighs/atom = 74.210786
Neighbor list builds = 1
Dangerous builds = 0

fix                 1 all npt temp ${Tmp} ${Tmp} 0.1 iso 1.0 1.0 1.0
fix                 1 all npt temp 325 ${Tmp} 0.1 iso 1.0 1.0 1.0
fix                 1 all npt temp 325 325 0.1 iso 1.0 1.0 1.0
dump                1 all atom 100 dump00_${Tmp}.adp
dump                1 all atom 100 dump00_325.adp
thermo              100
run                 23000
PPPM initialization ...
  using 12-bit tables for long-range coulomb (src/kspace.cpp:342)
  G vector (1/distance) = 0.3689864
  grid = 54 48 64
  stencil order = 5
  estimated absolute RMS force accuracy = 0.0017783949
  estimated relative force accuracy = 0.00012350269
  using double precision FFTW3
  3d grid and FFT values/proc = 34336 20736
Generated 0 of 6 mixed pair_coeff terms from geometric mixing rule
Per MPI rank memory allocation (min/avg/max) = 7.18 | 7.181 | 7.182 Mbytes
   Step          Temp          E_pair         E_mol          TotEng         Press          Volume    
         5   1e-05         -219130.88      0             -219130.88     -3274.7369      190279.83    
       100   35.09877      -219177.23      0             -219125.75      694.4976       189383.98    
       200   37.211355     -219166.62      0             -219112.04      10.340813      189311.32    
       300   42.820538     -219157.6       0             -219094.8       358.03114      189263.04    
       400   50.576389     -219146.78      0             -219072.59     -134.87968      189348.73    
       500   58.88133      -219132.68      0             -219046.31      199.37273      189247.48    
       600   70.800948     -219117.77      0             -219013.92      274.21071      189246.98    
       700   84.09883      -219098.66      0             -218975.31      192.94666      189180.67    
       800   99.478727     -219074.75      0             -218928.84     -94.719371      189150.06    
       900   117.16172     -219045.09      0             -218873.25      208.23772      189255.9     
      1000   140.72483     -219015.56      0             -218809.16      45.759839      189314.85    
      1100   163.90008     -218974.98      0             -218734.59     -1162.0056      189504.45    
      1200   193.11098     -218935.16      0             -218651.92      84.724044      189455.89    
      1300   223.16412     -218887.1       0             -218559.78     -209.76682      189840.79    
      1400   253.79823     -218835.95      0             -218463.7      -251.97527      189973.13    
      1500   283.91039     -218784.17      0             -218367.76      233.29263      190431.38    
      1600   315.64587     -218743.83      0             -218280.87     -1020.8382      190914.04    
      1700   334.92493     -218710.16      0             -218218.92      479.35831      190410.48    
      1800   340.4093      -218690.54      0             -218191.25     -206.28451      190759.72    
      1900   334.31241     -218707.05      0             -218216.71     -316.9763       190624.17    
      2000   324.43465     -218738.26      0             -218262.4      -349.04463      190212.9     
      2100   310.41724     -218745.42      0             -218290.12      1092.389       190025.31    
      2200   314.94359     -218743.88      0             -218281.95     -202.30305      190328.39    
      2300   324.55705     -218729.7       0             -218253.67      225.28021      190144.32    
      2400   335.36429     -218718.19      0             -218226.31      81.298751      190185.1     
      2500   333.3075      -218716.92      0             -218228.05      728.83238      189659.93    
      2600   324.91552     -218726.23      0             -218249.67     -631.22698      189843.43    
      2700   316.72784     -218736.42      0             -218271.87     -218.97228      189887.71    
      2800   317.69058     -218742.13      0             -218276.17      25.996802      189838.92    
      2900   322.28911     -218732.53      0             -218259.83      1060.4495      189604.49    
      3000   328.12132     -218718.79      0             -218237.53     -120.10633      189849.82    
      3100   333.2254      -218720.78      0             -218232.03     -793.31707      190167.33    
      3200   326.97603     -218726.03      0             -218246.45     -417.07991      190500.12    
      3300   320.96124     -218738.08      0             -218267.32     -624.10856      190576.79    
      3400   317.21191     -218741.39      0             -218276.13      355.99963      190498.43    
      3500   325.39614     -218741         0             -218263.74      111.74278      190778.02    
      3600   330.91659     -218728.6       0             -218243.24      13.469617      190832.71    
      3700   332.70425     -218720.08      0             -218232.1      -2151.2282      190905.57    
      3800   328.55362     -218723.82      0             -218241.93     -262.41264      190527.98    
      3900   321.2917      -218731.3       0             -218260.06     -629.8317       190725.55    
      4000   319.62228     -218743.06      0             -218274.26      95.567027      190378.33    
      4100   320.71121     -218742.47      0             -218272.08     -775.07189      190451.93    
      4200   323.66544     -218732.04      0             -218257.32      402.97017      190245.95    
      4300   331.76567     -218726.96      0             -218240.36      283.15197      189987.15    
      4400   335.13809     -218728.82      0             -218237.27     -413.20503      189917.41    
      4500   325.45223     -218730.03      0             -218252.69     -870.23411      189998.92    
      4600   322.46814     -218743.72      0             -218270.75      1046.5523      189799       
      4700   319.87571     -218744.31      0             -218275.14      168.04363      189998.04    
      4800   322.03429     -218736.83      0             -218264.5      -912.71261      189931.06    
      4900   329.90056     -218731.55      0             -218247.68     -548.33399      190006.42    
      5000   333.87663     -218728.47      0             -218238.77      309.76564      190324.61    
      5100   327.41023     -218726.03      0             -218245.82      187.68863      190417.63    
      5200   324.01187     -218736.66      0             -218261.42      433.40121      190356.2     
      5300   322.00933     -218743.07      0             -218270.78     -658.52489      190533.83    
      5400   319.45664     -218735.68      0             -218267.13     -770.1315       190853.99    
      5500   327.83827     -218732.57      0             -218251.72      131.82238      190756.95    
      5600   330.62032     -218724.14      0             -218239.22     -1062.7316      190898.83    
      5700   332.62191     -218730.2       0             -218242.34      859.8876       190495.26    
      5800   329.96877     -218740.62      0             -218256.65     -640.85795      190719.49    
      5900   318.07594     -218740.56      0             -218274.04      356.87191      190297.64    
      6000   321.94149     -218747.29      0             -218275.09     -320.8029       190292.83    
      6100   322.67832     -218735.99      0             -218262.71      1143.2428      190094.66    
      6200   330.56765     -218729.33      0             -218244.49     -115.51101      190131.22    
      6300   329.19125     -218721.86      0             -218239.03     -1030.0904      190055.38    
      6400   327.21901     -218732.43      0             -218252.5       104.11827      189797.87    
      6500   320.0004      -218737.77      0             -218268.42     -127.01407      189965.94    
      6600   318.84062     -218743.37      0             -218275.72      577.80912      189991.82    
      6700   322.27083     -218741.52      0             -218268.84      696.22871      190169.96    
      6800   328.50271     -218735.18      0             -218253.36     -22.080661      190230.46    
      6900   331.29201     -218729.21      0             -218243.3       258.25882      190260.08    
      7000   326.91012     -218727.16      0             -218247.68      246.66683      190563.37    
      7100   323.06729     -218734.66      0             -218260.81      201.56288      190879.16    
      7200   319.61712     -218739.23      0             -218270.44      206.36453      190806.86    
      7300   322.00906     -218739.67      0             -218267.37     -407.13865      190911.97    
      7400   325.0942      -218731.75      0             -218254.93      280.15179      190909.69    
      7500   331.60042     -218731.59      0             -218245.22      186.63918      190860.25    
      7600   327.18895     -218727.05      0             -218247.16      1440.9833      190721.85    
      7700   327.07334     -218736.96      0             -218257.24      833.07635      190640.24    
      7800   322.67395     -218740.94      0             -218267.67     -283.57234      190557.11    
      7900   320.00769     -218739.64      0             -218270.28     -165.15703      190200.96    
      8000   326.15058     -218739.14      0             -218260.77     -628.29934      190153.15    
      8100   328.29753     -218732.65      0             -218251.13     -473.27527      190178.01    
      8200   329.74199     -218733.31      0             -218249.68      307.7512       189854.29    
      8300   325.91933     -218730.99      0             -218252.95     -1531.1331      190294.74    
      8400   325.53482     -218741.66      0             -218264.19      1204.234       189585       
      8500   318.26452     -218734.86      0             -218268.06     -612.75388      190116.02    
      8600   322.78718     -218739.35      0             -218265.91     -464.70785      190263.88    
      8700   328.71599     -218739.25      0             -218257.12      1218.083       190074.5     
      8800   327.1692      -218729.81      0             -218249.94      62.216832      190417.33    
      8900   328.41723     -218734.41      0             -218252.72      1174.6459      189999.31    
      9000   325.00112     -218734.08      0             -218257.39     -222.46947      190636.18    
      9100   321.13327     -218736.3       0             -218265.29      662.74717      190714.2     
      9200   323.50808     -218740.61      0             -218266.11      255.10184      190735.74    
      9300   323.04181     -218733.5       0             -218259.69     -558.09619      190823.34    
      9400   327.99347     -218732.93      0             -218251.85      328.4753       190797.06    
      9500   327.00374     -218731         0             -218251.38     -178.34767      190708.25    
      9600   324.72642     -218732.45      0             -218256.17      524.93603      190331.77    
      9700   322.10747     -218736.25      0             -218263.81      324.71315      190024.82    
      9800   319.6126      -218734.53      0             -218265.75     -1433.4886      190396.87    
      9900   321.66825     -218735.51      0             -218263.72      522.48002      190069.34    
     10000   325.46168     -218732.95      0             -218255.59     -893.89096      190257.47    
     10100   328.91504     -218734.49      0             -218252.07      93.480911      190021.46    
     10200   323.43645     -218728.05      0             -218253.66     -527.64087      190250.56    
     10300   327.06386     -218740.54      0             -218260.83      411.63935      190079.89    
     10400   323.61062     -218740.76      0             -218266.12      1503.7222      189973.73    
     10500   322.06832     -218736.56      0             -218264.18      72.109849      190142.57    
     10600   323.52735     -218734.88      0             -218260.36      313.63071      190022.5     
     10700   325.07754     -218731.36      0             -218254.57      198.95522      190340.41    
     10800   324.05367     -218729.1       0             -218253.8      -387.12054      190579.06    
     10900   325.61072     -218735.05      0             -218257.47     -396.45747      190657.47    
     11000   323.15495     -218735.94      0             -218261.97     -155.33528      190899.49    
     11100   323.52789     -218738.55      0             -218264.02      361.3032       190759.85    
     11200   323.50176     -218735.59      0             -218261.11      266.25399      190700.22    
     11300   324.36958     -218732.16      0             -218256.4      -1165.8678      190614.96    
     11400   327.162       -218733.19      0             -218253.34     -1065.9445      190625.81    
     11500   328.88755     -218737.53      0             -218255.15     -263.91254      190496.13    
     11600   319.16785     -218728.82      0             -218260.7      -103.87188      190407.98    
     11700   321.68827     -218735.38      0             -218263.55     -857.493        190496.96    
     11800   322.5476      -218736.61      0             -218263.52      1367.0767      189923.86    
     11900   326.33484     -218735.99      0             -218257.35     -353.22597      190200.14    
     12000   330.0959      -218739.33      0             -218255.17      739.48388      189871.77    
     12100   330.53821     -218740.97      0             -218256.17      118.42214      190068.67    
     12200   325.91467     -218741.2       0             -218263.17      588.63825      189865.76    
     12300   324.8079      -218742.71      0             -218266.31     -603.71918      190121.76    
     12400   321.95202     -218736.74      0             -218264.53      700.03373      189979.3     
     12500   326.10409     -218734.33      0             -218256.03     -558.75906      190248.47    
     12600   325.67095     -218731.02      0             -218253.36     -404.5612       190356.31    
     12700   324.73148     -218733.3       0             -218257.01      106.99235      190514.02    
     12800   320.06725     -218730.69      0             -218261.25     -758.18529      190825.17    
     12900   322.34741     -218736.9       0             -218264.11      274.80486      190581.88    
     13000   323.32683     -218734.54      0             -218260.31     -1659.4059      190753.56    
     13100   324.80892     -218730.74      0             -218254.34     -739.29147      190712.76    
     13200   327.67295     -218732.75      0             -218252.15      977.56014      190571.71    
     13300   326.73748     -218735.23      0             -218256         326.30669      190512       
     13400   323.07955     -218735.85      0             -218261.98     -704.71288      190537.79    
     13500   323.41662     -218739.2       0             -218264.84      844.09846      190499.96    
     13600   326.09964     -218741.04      0             -218262.74      666.68469      190329.72    
     13700   326.19413     -218737.57      0             -218259.14     -704.02333      190146.64    
     13800   331.89865     -218742.74      0             -218255.94      198.40279      189927.75    
     13900   327.91722     -218738.1       0             -218257.13     -300.41056      189895.96    
     14000   326.29914     -218741.15      0             -218262.56     -237.85684      189820.28    
     14100   324.10336     -218740.88      0             -218265.52     -920.90873      190063.56    
     14200   321.51745     -218736.56      0             -218264.99     -576.63187      190061.48    
     14300   323.05952     -218734.49      0             -218260.65     -44.640113      190263.32    
     14400   326.40471     -218732.84      0             -218254.09     -1259.437       190550.93    
     14500   326.9288      -218734.49      0             -218254.98      915.78701      190193.84    
     14600   324.49828     -218734.12      0             -218258.18     -848.00762      190701.48    
     14700   323.56776     -218738.53      0             -218263.95      965.92133      190415.56    
     14800   324.04967     -218741.43      0             -218266.14      688.29142      190336.06    
     14900   324.65966     -218736.49      0             -218260.31      81.413425      190609.61    
     15000   322.27431     -218726.44      0             -218253.76      21.488756      190605.46    
     15100   326.2253      -218730.34      0             -218251.86     -585.19198      190541.04    
     15200   326.08704     -218735.44      0             -218257.17      573.59307      190491.32    
     15300   324.72028     -218739.87      0             -218263.6      -0.6043161      190483.39    
     15400   323.49676     -218740.1       0             -218265.62      1084.4407      190176.34    
     15500   324.63405     -218738.08      0             -218261.93     -185.64145      190262.2     
     15600   324.43269     -218733.06      0             -218257.21     -411.22421      190051.12    
     15700   324.3552      -218729.97      0             -218254.23     -402.92885      190194.71    
     15800   326.3207      -218734.89      0             -218256.27     -384.89774      190188.76    
     15900   322.7603      -218735.02      0             -218261.63      320.04302      190113.67    
     16000   322.18863     -218738.16      0             -218265.6      -177.71618      190142.14    
     16100   321.13574     -218736.01      0             -218264.99      815.28365      189920.38    
     16200   326.09789     -218737.11      0             -218258.82     -497.18702      190260       
     16300   323.99984     -218731.73      0             -218256.51     -485.43954      190149.24    
     16400   323.86357     -218729.88      0             -218254.86     -167.12231      190500.7     
     16500   323.35623     -218733.62      0             -218259.35      999.94468      190301.75    
     16600   322.09241     -218735.89      0             -218263.47      877.43228      190393.19    
     16700   322.20503     -218736.83      0             -218264.24     -442.72089      190471.18    
     16800   323.71976     -218736.4       0             -218261.6       558.01311      190197.61    
     16900   326.8006      -218736.75      0             -218257.43      182.15803      190254.58    
     17000   326.26127     -218733.05      0             -218254.52      279.34654      190359.09    
     17100   322.13716     -218729.91      0             -218257.43      585.78886      190222.44    
     17200   326.19552     -218740.81      0             -218262.37     -612.75976      190338.6     
     17300   323.72934     -218739.72      0             -218264.9      -286.03724      190280.47    
     17400   323.35649     -218737.21      0             -218262.94      352.7603       190223.97    
     17500   326.00985     -218737.11      0             -218258.95     -358.38337      190233.77    
     17600   328.18713     -218736.07      0             -218254.71      479.21097      190160.22    
     17700   329.96253     -218738.66      0             -218254.7       14.573704      190118.67    
     17800   321.38637     -218732.54      0             -218261.16     -454.65853      190255.88    
     17900   325.17843     -218743.55      0             -218266.6      -137.72075      190228.85    
     18000   324.18787     -218739.9       0             -218264.41     -83.46969       190470.35    
     18100   322.79044     -218733         0             -218259.56      1221.8852      190476.28    
     18200   329.30505     -218735.79      0             -218252.79      1212.0735      190515.33    
     18300   326.4409      -218732.5       0             -218253.71      760.44474      190535.69    
     18400   324.593       -218736.38      0             -218260.29     -502.43662      190567.46    
     18500   326.84334     -218745.22      0             -218265.83     -112.12897      190545.66    
     18600   321.57198     -218738.73      0             -218267.07      334.30322      190371.69    
     18700   325.37422     -218737.6       0             -218260.37      157.33592      190396.44    
     18800   328.82665     -218737.07      0             -218254.77     -300.59777      190452.92    
     18900   330.01189     -218738.91      0             -218254.88      725.91527      190331.52    
     19000   328.93198     -218742.45      0             -218260        -547.24954      190336.45    
     19100   321.68324     -218737.39      0             -218265.58      129.58412      190207.52    
     19200   322.02334     -218738.18      0             -218265.86     -425.529        190203.05    
     19300   320.13744     -218731.92      0             -218262.37     -726.18414      190112.15    
     19400   325.28672     -218734.84      0             -218257.73      194.66508      190224.39    
     19500   331.32683     -218740.81      0             -218254.85     -1034.4801      190560.89    
     19600   321.29826     -218729.35      0             -218258.1      -112.93111      190437.36    
     19700   324.14829     -218737.09      0             -218261.66     -1023.9962      190443.94    
     19800   323.6         -218739.73      0             -218265.1       1599.8576      190065.24    
     19900   323.70271     -218737.84      0             -218263.06     -27.914362      190529.21    
     20000   327.49351     -218741.26      0             -218260.92      868.37906      190349.68    
     20100   326.96302     -218736.41      0             -218256.85     -556.62072      190662.33    
     20200   325.95031     -218733.37      0             -218255.3       176.37269      190615.28    
     20300   325.63002     -218735.96      0             -218258.35      316.98562      190413.37    
     20400   323.68461     -218737.49      0             -218262.74     -543.50849      190468.64    
     20500   324.87131     -218741.14      0             -218264.65      122.65038      190329.99    
     20600   323.70419     -218736.22      0             -218261.44     -948.22132      190417.35    
     20700   327.13885     -218737.85      0             -218258.03      1434.9023      190043.63    
     20800   326.32454     -218734.9       0             -218256.27      595.32172      190244.15    
     20900   322.88081     -218733.2       0             -218259.63     -156.45372      190163.35    
     21000   326.36393     -218742.02      0             -218263.34     -592.4807       190149.86    
     21100   322.51892     -218738.44      0             -218265.39     -637.42907      190392.77    
     21200   323.78973     -218738.6       0             -218263.69      214.62308      190099.51    
     21300   328.5363      -218738.19      0             -218256.32     -1159.318       190399.2     
     21400   323.50844     -218730.19      0             -218255.69      43.237075      190046.93    
     21500   329.15049     -218740.56      0             -218257.79      1704.2383      190036.34    
     21600   325.74648     -218740.01      0             -218262.24     -999.61034      190623.56    
     21700   325.68074     -218744.02      0             -218266.33      20.507548      190604.86    
     21800   324.82373     -218740.08      0             -218263.66      1435.533       190352.35    
     21900   328.1361      -218738.19      0             -218256.91     -63.154114      190384.69    
     22000   326.49038     -218733.4       0             -218254.53      935.04604      190158.31    
     22100   330.0371      -218740.15      0             -218256.08     -608.22785      190521.57    
     22200   325.53062     -218740.44      0             -218262.98      641.86731      190286.03    
     22300   320.48511     -218735.34      0             -218265.28     -304.07841      190398.7     
     22400   321.51857     -218734.25      0             -218262.68     -849.26948      190622.26    
     22500   325.52562     -218737.48      0             -218260.02     -24.731526      190247.27    
     22600   326.29049     -218734.27      0             -218255.7      -298.03593      190296.24    
     22700   323.81212     -218730.42      0             -218255.48     -347.23257      190424.18    
     22800   326.82825     -218740.49      0             -218261.13      606.56408      190067.17    
     22900   324.69623     -218742.09      0             -218265.85     -176.65481      190046.61    
     23000   321.30355     -218737.28      0             -218266.02      48.936573      190023.84    
     23005   321.68234     -218737.77      0             -218265.96     -427.79836      190015.97    
Loop time of 313.589 on 8 procs for 23000 steps with 11348 atoms

Performance: 6.337 ns/day, 3.787 hours/ns, 73.344 timesteps/s
97.2% CPU use with 8 MPI tasks x 1 OpenMP threads

MPI task timing breakdown:
Section |  min time  |  avg time  |  max time  |%varavg| %total
---------------------------------------------------------------
Pair    | 76.502     | 78.711     | 81.044     |  17.1 | 25.10
Kspace  | 146.63     | 149.28     | 151.8      |  13.6 | 47.60
Neigh   | 9.1318     | 9.4367     | 9.7674     |   5.9 |  3.01
Comm    | 5.2399     | 5.2755     | 5.3093     |   1.2 |  1.68
Output  | 0.95485    | 0.95601    | 0.96332    |   0.3 |  0.30
Modify  | 55.53      | 57.157     | 58.33      |  10.8 | 18.23
Other   |            | 12.78      |            |       |  4.07

Nlocal:         1418.5 ave        1433 max        1394 min
Histogram: 1 0 1 0 0 1 1 2 0 2
Nghost:        3914.38 ave        3927 max        3896 min
Histogram: 1 0 0 0 2 1 0 3 0 1
Neighs:         105309 ave      109417 max      101986 min
Histogram: 1 1 0 1 1 3 0 0 0 1

Total # of neighbors = 842469
Ave neighs/atom = 74.239425
Neighbor list builds = 3597
Dangerous builds = 0
unfix 1

timestep 0.001
fix                 1 all nvt temp ${Tmp} ${Tmp} 0.1
fix                 1 all nvt temp 325 ${Tmp} 0.1
fix                 1 all nvt temp 325 325 0.1
compute             myRDF all rdf 100
fix                 RDF all ave/time 100 1 100 c_myRDF[*] file lammps00_${Tmp}.rdf mode vector
fix                 RDF all ave/time 100 1 100 c_myRDF[*] file lammps00_325.rdf mode vector
run                 345000
PPPM initialization ...
  using 12-bit tables for long-range coulomb (src/kspace.cpp:342)
  G vector (1/distance) = 0.36902811
  grid = 54 48 64
  stencil order = 5
  estimated absolute RMS force accuracy = 0.0017759848
  estimated relative force accuracy = 0.00012333532
  using double precision FFTW3
  3d grid and FFT values/proc = 34336 20736
Generated 0 of 6 mixed pair_coeff terms from geometric mixing rule
Neighbor list info ...
  update every 1 steps, delay 0 steps, check yes
  max neighbors/atom: 2000, page size: 100000
  master list distance cutoff = 8.3
  ghost atom cutoff = 8.3
  binsize = 4.15, bins = 14 12 18
  2 neighbor lists, perpetual/occasional/extra = 1 1 0
  (1) pair buck/coul/long, perpetual
      attributes: half, newton on
      pair build: half/bin/atomonly/newton
      stencil: half/bin/3d
      bin: standard
  (2) compute rdf, occasional, copy from (1)
      attributes: half, newton on
      pair build: copy
      stencil: none
      bin: none
Per MPI rank memory allocation (min/avg/max) = 8.236 | 8.237 | 8.237 Mbytes
   Step          Temp          E_pair         E_mol          TotEng         Press     
     23005   321.68234     -218737.77      0             -218265.96     -428.38466    
     23100   323.80913     -218738.45      0             -218263.51      827.2355     
     23200   329.15347     -218738.11      0             -218255.34      981.37633    
     23300   327.08099     -218732.3       0             -218252.56     -498.58241    
     23400   325.54665     -218733.93      0             -218256.44     -167.39354    
     23500   322.76087     -218732.36      0             -218258.96      766.7767     
     23600   321.87662     -218734.45      0             -218262.35      1488.8632    
     23700   326.62691     -218744.56      0             -218265.49      623.82204    
     23800   322.87472     -218741.6       0             -218268.03      732.99789    
     23900   323.16501     -218740.46      0             -218266.47     -111.36945    
     24000   328.17939     -218740.19      0             -218258.84      682.14047    
     24100   325.987       -218733.39      0             -218255.26      503.82013    
     24200   325.41663     -218735.74      0             -218258.45      745.69541    
     24300   327.90544     -218746.52      0             -218265.58      196.65537    
     24400   322.94901     -218742.92      0             -218269.24      221.66914    
     24500   324.38644     -218742.16      0             -218266.37      848.61762    
     24600   322.47108     -218735.92      0             -218262.95      661.69206    
     24700   323.02996     -218732.15      0             -218258.36      1278.9591    
     24800   327.76801     -218736.32      0             -218255.58      167.87669    
     24900   326.37281     -218739.79      0             -218261.09     -323.34968    
     25000   323.85165     -218744.83      0             -218269.83      29.053657    
     25100   324.1643      -218743.39      0             -218267.93      701.39882    
     25200   325.66723     -218738.64      0             -218260.98     -396.07944    
     25300   325.07388     -218735.49      0             -218258.7      -212.4764     
     25400   325.02791     -218735.49      0             -218258.76     -103.22392    
     25500   323.00789     -218738.18      0             -218264.41      49.492324    
     25600   321.74236     -218745.61      0             -218273.7       462.57011    
     25700   322.13315     -218742.74      0             -218270.26      175.33649    
     25800   323.45121     -218738.89      0             -218264.48      840.60155    
     25900   323.43128     -218734.18      0             -218259.8       183.92254    
     26000   324.09367     -218733.77      0             -218258.41     -591.07755    
     26100   324.83063     -218739.28      0             -218262.85      396.67658    
     26200   320.0839      -218741.81      0             -218272.33      710.66087    
     26300   323.05339     -218744.31      0             -218270.48      542.57936    
     26400   324.70942     -218741.71      0             -218265.45      1047.8429    
     26500   326.66458     -218741.58      0             -218262.46      143.93547    
     26600   323.95071     -218735.67      0             -218260.53      580.40856    
     26700   326.17542     -218737.99      0             -218259.58      1069.4484    
     26800   326.80691     -218742.69      0             -218263.35      992.90442    
     26900   322.07071     -218741.34      0             -218268.95      1905.4798    
     27000   321.97954     -218740.48      0             -218268.23      377.50875    
     27100   326.95108     -218739.27      0             -218259.73      24.20095     
     27200   328.99027     -218740.01      0             -218257.48      937.76568    
     27300   325.25151     -218737.14      0             -218260.08      1233.7464    
     27400   324.88006     -218741.09      0             -218264.59      881.68292    
     27500   322.33744     -218741.66      0             -218268.89      509.36065    
     27600   321.29894     -218740.62      0             -218269.37      104.42037    
     27700   324.4415      -218739.15      0             -218263.28     -8.3466429    
     27800   330.10287     -218741.96      0             -218257.8      -271.26735    
     27900   324.89282     -218734.15      0             -218257.62      171.36267    
     28000   326.1224      -218740.29      0             -218261.96     -169.61821    
     28100   326.12005     -218747.58      0             -218269.26     -551.09771    
     28200   322.24619     -218742.64      0             -218269.99     -1555.0879    
     28300   321.46519     -218736.87      0             -218265.37     -250.72804    
     28400   325.11969     -218739.8       0             -218262.95      1116.08      
     28500   321.76226     -218734.32      0             -218262.39      321.09067    
     28600   325.3588      -218738.75      0             -218261.54     -19.06847     
     28700   327.49622     -218742.32      0             -218261.98     -525.20265    
     28800   326.16044     -218740.64      0             -218262.26     -115.89392    
     28900   323.17878     -218734.96      0             -218260.95      840.62268    
     29000   325.40601     -218736.16      0             -218258.89      176.17674    
     29100   324.37659     -218734.76      0             -218258.99      1106.4957    
     29200   322.75009     -218737.96      0             -218264.58      823.46817    
     29300   318.9207      -218737.59      0             -218269.83     -466.38551    
     29400   322.67869     -218740.93      0             -218267.65      140.28074    
     29500   328.47994     -218739.44      0             -218257.65      296.42736    
     29600   326.37993     -218735         0             -218256.3       417.43537    
     29700   327.40928     -218740.25      0             -218260.03      1308.7859    
     29800   325.8931      -218742.61      0             -218264.62      338.62713    
     29900   325.87053     -218743.72      0             -218265.76     -49.259537    
     30000   322.68769     -218738.27      0             -218264.98      613.57396    
     30100   326.19485     -218737.38      0             -218258.95     -403.27671    
     30200   328.68939     -218737.62      0             -218255.53      670.95724    
     30300   328.33463     -218739.6       0             -218258.03      667.76709    
     30400   323.56042     -218740.34      0             -218265.77      216.12784    
     30500   323.9685      -218742.87      0             -218267.7       882.31931    
     30600   325.1624      -218742.28      0             -218265.36      938.18369    
     30700   325.8669      -218740.48      0             -218262.52      270.62732    
     30800   324.21215     -218737.14      0             -218261.61      274.68243    
     30900   323.20121     -218735.86      0             -218261.82      525.97542    
     31000   326.18099     -218740.72      0             -218262.31     -127.27822    
     31100   322.1805      -218738.52      0             -218265.97      70.810923    
     31200   319.77765     -218740.42      0             -218271.4       50.914864    
     31300   326.5503      -218744.93      0             -218265.97     -616.56562    
     31400   325.00715     -218736         0             -218259.31      363.21042    
     31500   326.08002     -218737.92      0             -218259.65      628.50558    
     31600   323.0781      -218735.94      0             -218262.08      1311.4607    
     31700   322.6502      -218738.58      0             -218265.34      370.14519    
     31800   319.63447     -218742.92      0             -218274.11      112.6059     
     31900   322.84653     -218746.06      0             -218272.54      331.55061    
     32000   324.38908     -218741.08      0             -218265.3       323.41414    
     32100   323.68484     -218736.75      0             -218262         1586.7682    
     32200   327.7948      -218740.24      0             -218259.45      499.2446     
     32300   326.96688     -218738.39      0             -218258.82     -947.00942    
     32400   322.92049     -218735.9       0             -218262.27     -651.59955    
     32500   321.1601      -218740.69      0             -218269.64      158.81086    
     32600   322.43819     -218742.59      0             -218269.67      1032.0499    
     32700   326.20632     -218739.35      0             -218260.9      -35.882975    
     32800   325.47388     -218734.84      0             -218257.46      135.46025    
     32900   323.01722     -218734.97      0             -218261.19      1226.1023    
     33000   321.64732     -218737.59      0             -218265.83      777.15988    
     33100   322.39478     -218740.05      0             -218267.19     -293.51284    
     33200   324.25108     -218738.11      0             -218262.53      435.58757    
     33300   325.72511     -218732.82      0             -218255.08      945.87213    
     33400   324.709       -218731.62      0             -218255.37      351.10753    
     33500   323.87232     -218738.2       0             -218263.17      357.25386    
     33600   324.20296     -218741.47      0             -218265.95      32.459159    
     33700   324.64586     -218740.46      0             -218264.3       657.6783     
     33800   323.52952     -218735.4       0             -218260.88      137.20233    
     33900   326.24821     -218735.58      0             -218257.07     -118.92419    
     34000   328.35644     -218731.79      0             -218250.18      706.22935    
     34100   327.68759     -218728.89      0             -218248.27     -182.68077    
     34200   328.3642      -218738.83      0             -218257.21      338.16599    
     34300   324.24646     -218738.72      0             -218263.14      567.10006    
     34400   325.29206     -218741.56      0             -218264.45      513.83981    
     34500   324.10421     -218737.8       0             -218262.43      1151.6852    
     34600   324.97271     -218733.06      0             -218256.42      1039.9671    
     34700   328.50972     -218734.21      0             -218252.38      586.23586    
     34800   326.92909     -218738.73      0             -218259.22      1653.4282    
     34900   323.45331     -218740.46      0             -218266.04      787.49092    
     35000   326.72905     -218743.7       0             -218264.48      707.89826    
     35100   326.24941     -218739.07      0             -218260.55      550.38646    
     35200   328.0227      -218734.36      0             -218253.25      11.608097    
     35300   329.92475     -218734.79      0             -218250.89      772.9142     
     35400   324.20364     -218735.99      0             -218260.47     -721.22913    
     35500   324.42856     -218739.54      0             -218263.7      -456.33833    
     35600   325.6173      -218740.53      0             -218262.94     -213.04579    
     35700   322.81873     -218736         0             -218262.52      660.53104    
     35800   326.17637     -218737.98      0             -218259.57      248.76759    
     35900   326.90509     -218734.49      0             -218255.01      1069.1652    
     36000   328.32046     -218738.56      0             -218257.01      1366.5285    
     36100   330.4475      -218750.87      0             -218266.19      450.29268    
     36200   323.92417     -218744.7       0             -218269.59      352.17732    
     36300   325.73615     -218742.57      0             -218264.81     -423.21872    
     36400   325.41629     -218737.26      0             -218259.97      793.65116    
     36500   325.6599      -218736.39      0             -218258.74     -23.217089    
     36600   326.91624     -218740.24      0             -218260.75     -256.00322    
     36700   324.25401     -218737.87      0             -218262.28      522.71562    
     36800   325.33627     -218739.02      0             -218261.84      561.68555    
     36900   326.19827     -218740.71      0             -218262.27      317.6228     
     37000   324.92747     -218738.71      0             -218262.14      359.55571    
     37100   324.39215     -218739.1       0             -218263.31      974.01519    
     37200   325.18574     -218738.44      0             -218261.48     -66.568534    
     37300   325.5356      -218733.69      0             -218256.22     -537.50147    
     37400   328.10448     -218736.44      0             -218255.2      -167.20343    
     37500   325.01686     -218738.58      0             -218261.87     -366.42372    
     37600   320.5375      -218738.49      0             -218268.35      215.90713    
     37700   323.35334     -218741.13      0             -218266.87      17.296725    
     37800   324.14178     -218738.74      0             -218263.32      352.48371    
     37900   323.2311      -218734.88      0             -218260.79      392.0404     
     38000   325.71789     -218737.02      0             -218259.29     -229.67712    
     38100   323.8983      -218734.96      0             -218259.9       352.22678    
     38200   323.72949     -218735.46      0             -218260.64      357.41203    
     38300   326.56869     -218741.33      0             -218262.35      1033.6231    
     38400   322.25527     -218737.74      0             -218265.09      761.06987    
     38500   322.72284     -218742.04      0             -218268.69      204.47821    
     38600   322.49139     -218742.66      0             -218269.66     -756.7958     
     38700   326.04189     -218741.5       0             -218263.29      304.67909    
     38800   329.86557     -218740.77      0             -218256.96     -64.84848     
     38900   326.3244      -218735.52      0             -218256.9      -982.74546    
     39000   325.5608      -218739.32      0             -218261.81      15.457744    
     39100   321.852       -218741.4       0             -218269.34      502.96897    
     39200   318.53782     -218743.34      0             -218276.13      73.468086    
     39300   317.00716     -218747.11      0             -218282.15     -96.97033     
     39400   319.95112     -218741.84      0             -218272.56     -600.05322    
     39500   321.49242     -218736.58      0             -218265.05      422.18685    
     39600   328.92747     -218741.43      0             -218258.99      858.8511     
     39700   327.61137     -218739.28      0             -218258.77      762.61137    
     39800   322.80673     -218736.32      0             -218262.86     -269.43619    
     39900   323.07934     -218741.61      0             -218267.75      1149.4676    
     40000   323.44963     -218746.78      0             -218272.38      475.56261    
     40100   322.95931     -218740.81      0             -218267.12      48.729233    
     40200   325.67286     -218736.02      0             -218258.35      807.46954    
     40300   328.4796      -218740.21      0             -218258.43     -18.229127    
     40400   323.09504     -218736.53      0             -218262.64     -397.81784    
     40500   323.07606     -218742.31      0             -218268.45     -279.66388    
     40600   324.55862     -218747.19      0             -218271.15      904.8145     
     40700   328.06061     -218742.69      0             -218261.52      760.28261    
     40800   324.65525     -218733.22      0             -218257.04      1673.267     
     40900   329.35222     -218741.79      0             -218258.72      487.70279    
     41000   325.442       -218741.96      0             -218264.63      422.48424    
     41100   321.96021     -218741.49      0             -218269.27      175.00297    
     41200   324.25913     -218744.93      0             -218269.34      1090.7314    
     41300   327.11151     -218738.61      0             -218258.83     -494.98475    
     41400   326.34491     -218734.19      0             -218255.54      71.927281    
     41500   325.896       -218735.54      0             -218257.54     -556.45841    
     41600   325.96673     -218743.16      0             -218265.06     -512.92077    
     41700   319.92969     -218736.86      0             -218267.62      573.67517    
     41800   323.53148     -218739.85      0             -218265.32     -813.02841    
     41900   324.13374     -218737.61      0             -218262.2       59.428663    
     42000   327.47614     -218741.31      0             -218260.99     -241.53844    
     42100   327.1364      -218740.96      0             -218261.14      110.13309    
     42200   320.19675     -218732.91      0             -218263.28     -172.54359    
     42300   321.02492     -218740.06      0             -218269.21      429.92271    
     42400   323.57593     -218746.57      0             -218271.98      1016.8174    
     42500   325.80967     -218742.2       0             -218264.33      1679.9367    
     42600   328.73501     -218740.15      0             -218257.99     -120.2489     
     42700   329.76474     -218742.39      0             -218258.72      779.84158    
     42800   321.82639     -218736.15      0             -218264.12      1199.9719    
     42900   322.28279     -218739.86      0             -218267.16     -101.64605    
     43000   324.06706     -218742.16      0             -218266.84     -161.90265    
     43100   326.93597     -218738.9       0             -218259.37     -176.02532    
     43200   327.95709     -218736.53      0             -218255.51      382.50251    
     43300   329.79542     -218741.81      0             -218258.1       1047.3478    
     43400   324.75983     -218740.79      0             -218264.46      178.98276    
     43500   324.06306     -218743.5       0             -218268.19      688.02879    
     43600   323.36143     -218742.76      0             -218268.48     -741.84885    
     43700   328.44973     -218742.03      0             -218260.29     -302.67531    
     43800   328.00038     -218737.63      0             -218256.55      984.46537    
     43900   324.83366     -218734.78      0             -218258.34     -35.271122    
     44000   322.7066      -218738.16      0             -218264.84      826.25294    
     44100   323.17734     -218742.64      0             -218268.63      613.15362    
     44200   324.14937     -218741.78      0             -218266.35     -837.88894    
     44300   328.46414     -218736.18      0             -218254.41     -1060.7338    
     44400   328.56061     -218735.82      0             -218253.92     -196.2504     
     44500   323.18057     -218734.55      0             -218260.54      167.75716    
     44600   323.12203     -218739.25      0             -218265.32     -100.57411    
     44700   323.90072     -218739.08      0             -218264.01      742.12218    
     44800   327.62283     -218741.92      0             -218261.39      471.90109    
     44900   331.81851     -218739.23      0             -218252.55      68.847007    
     45000   326.03953     -218728.84      0             -218250.64      975.6755     
     45100   324.90795     -218734.84      0             -218258.29      2141.5138    
     45200   325.42263     -218739.93      0             -218262.63      947.23402    
     45300   327.15279     -218743.02      0             -218263.18      843.68178    
     45400   325.09867     -218740.4       0             -218263.57      363.87054    
     45500   326.34744     -218743.78      0             -218265.12      678.60101    
     45600   324.09406     -218741.14      0             -218265.79      730.22861    
     45700   324.20043     -218739.18      0             -218263.67      1038.5464    
     45800   322.17961     -218730.44      0             -218257.9      -1318.3596    
     45900   330.01323     -218737.17      0             -218253.14     -381.38514    
     46000   326.92572     -218737.12      0             -218257.61     -673.48341    
     46100   322.53827     -218740.1       0             -218267.03      537.80408    
     46200   324.521       -218742.47      0             -218266.49      1205.1904    
     46300   325.51339     -218738.91      0             -218261.47      1076.5886    
     46400   326.62715     -218736.43      0             -218257.36      1255.4841    
     46500   327.49734     -218737.13      0             -218256.78      174.75953    
     46600   322.92113     -218738.34      0             -218264.7       489.71678    
     46700   319.58569     -218739.09      0             -218270.35     -204.08303    
     46800   326.70236     -218745.95      0             -218266.77     -1027.8735    
     46900   325.4674      -218737.48      0             -218260.11      138.55434    
     47000   323.08284     -218731.89      0             -218258.02      821.72696    
     47100   324.88852     -218735.4       0             -218258.88      605.38029    
     47200   327.46423     -218742.08      0             -218261.78      225.5309     
     47300   323.40751     -218736.74      0             -218262.39      257.46132    
     47400   322.83957     -218736.84      0             -218263.33      1100.2388    
     47500   327.30249     -218743.2       0             -218263.14     -187.17885    
     47600   324.77732     -218735.61      0             -218259.25     -253.36461    
     47700   324.0458      -218730.77      0             -218255.49      1012.6224    
     47800   329.11439     -218737.28      0             -218254.57      1100.8302    
     47900   322.33171     -218735.64      0             -218262.87      758.88249    
     48000   322.52472     -218740.04      0             -218266.99     -488.42517    
     48100   323.87339     -218740.8       0             -218265.77      1328.5546    
     48200   323.34396     -218734.99      0             -218260.74     -878.54213    
     48300   328.29355     -218733.98      0             -218252.47      1417.5365    
     48400   327.94327     -218735.8       0             -218254.8       598.87966    
     48500   324.46641     -218736.15      0             -218260.25      4.075075     
     48600   320.68308     -218734.63      0             -218264.28     -563.58826    
     48700   323.63934     -218738.96      0             -218264.27     -278.11084    
     48800   323.36043     -218736.69      0             -218262.41     -166.54258    
     48900   328.36279     -218739.08      0             -218257.47      421.88296    
     49000   326.89954     -218732.76      0             -218253.29      1090.1697    
     49100   328.57269     -218739.35      0             -218257.43      165.7627     
     49200   325.61155     -218742.94      0             -218265.36      1112.0257    
     49300   325.76702     -218743.3       0             -218265.49      1405.0982    
     49400   325.85634     -218741.55      0             -218263.61     -550.17915    
     49500   325.70984     -218734.93      0             -218257.2       803.9082     
     49600   327.14291     -218729.85      0             -218250.02     -365.23873    
     49700   331.21499     -218739.6       0             -218253.8       64.00519     
     49800   325.13        -218736.42      0             -218259.55      337.82635    
     49900   320.75759     -218732.78      0             -218262.32      98.442879    
     50000   325.48748     -218741.29      0             -218263.89      17.386527    
     50100   322.03282     -218737.67      0             -218265.34     -948.29394    
     50200   323.58327     -218739.17      0             -218264.56     -791.03863    
     50300   321.72777     -218731.87      0             -218259.99     -326.60548    
     50400   325.94415     -218733.95      0             -218255.88      1337.0896    
     50500   322.20444     -218730.93      0             -218258.35      384.8824     
     50600   320.22178     -218737.02      0             -218267.35      203.76893    
     50700   322.28696     -218741.98      0             -218269.27      62.788904    
     50800   327.28491     -218746.12      0             -218266.09      196.44301    
     50900   322.62271     -218735.46      0             -218262.27      492.07847    
     51000   326.81065     -218739.97      0             -218260.63      357.37391    
     51100   328.42189     -218742.3       0             -218260.6      -352.46409    
     51200   328.61879     -218746.02      0             -218264.03     -497.77108    
     51300   318.07347     -218737.27      0             -218270.75     -164.56397    
     51400   322.9357      -218750.64      0             -218276.99      818.54284    
     51500   323.43032     -218743         0             -218268.62      1328.3128    
     51600   324.60937     -218737.92      0             -218261.81      1273.2191    
     51700   328.44657     -218741.12      0             -218259.38     -56.842249    
     51800   326.26344     -218738.59      0             -218260.06      475.94482    
     51900   327.87673     -218745.83      0             -218264.92     -520.94597    
     52000   321.98768     -218743.52      0             -218271.26      435.22164    
     52100   324.66629     -218745.47      0             -218269.27      1341.6098    
     52200   326.90711     -218738.93      0             -218259.45      1023.4627    
     52300   326.51703     -218735.89      0             -218256.98      911.47406    
     52400   326.32138     -218738.77      0             -218260.15      409.18674    
     52500   322.37256     -218738.04      0             -218265.22     -514.62329    
     52600   323.90342     -218742.62      0             -218267.54      165.57638    
     52700   328.98506     -218747.56      0             -218265.03      800.03942    
     52800   323.78841     -218730.27      0             -218255.37     -758.69058    
     52900   324.0235      -218730.28      0             -218255.03      416.92453    
     53000   325.39915     -218738.35      0             -218261.09      26.645628    
     53100   322.98889     -218739.66      0             -218265.92     -104.42554    
     53200   321.47903     -218737.86      0             -218266.34      1081.6316    
     53300   324.24091     -218739.16      0             -218263.59      888.8256     
     53400   323.876       -218737.17      0             -218262.14     -618.62652    
     53500   325.9063      -218739.37      0             -218261.36      675.67408    
     53600   322.90883     -218735.05      0             -218261.43      1245.2042    
     53700   324.07124     -218738.41      0             -218263.09      1235.9106    
     53800   324.36558     -218742.03      0             -218266.28      977.11727    
     53900   325.0194      -218743.29      0             -218266.58     -87.573316    
     54000   323.17602     -218736.92      0             -218262.91      635.47478    
     54100   326.26573     -218734.86      0             -218256.32     -104.95048    
     54200   329.03156     -218737.63      0             -218255.04     -266.77544    
     54300   327.61992     -218745.06      0             -218264.53      371.17483    
     54400   321.1861      -218740.39      0             -218269.3       1394.2144    
     54500   323.07373     -218740.38      0             -218266.52      1470.8141    
     54600   324.89132     -218739.29      0             -218262.77      1152.8912    
     54700   327.70569     -218738.12      0             -218257.47      53.263223    
     54800   332.99689     -218740.97      0             -218252.56      446.42621    
     54900   323.43522     -218730.53      0             -218256.14      165.65126    
     55000   320.07421     -218734.46      0             -218265         192.5945     
     55100   323.22366     -218741.18      0             -218267.1       12.060129    
     55200   322.98442     -218739.85      0             -218266.12      512.02821    
     55300   327.39453     -218738.8       0             -218258.61     -684.46398    
     55400   329.21468     -218736.64      0             -218253.77      671.50663    
     55500   324.31779     -218732.55      0             -218256.87     -186.30947    
     55600   326.29422     -218739.62      0             -218261.03     -78.120415    
     55700   326.29859     -218740.98      0             -218262.39     -224.90414    
     55800   322.30433     -218737.97      0             -218265.24      420.15482    
     55900   322.19528     -218740.26      0             -218267.7       1106.1943    
     56000   326.26935     -218745.13      0             -218266.59      453.30569    
     56100   328.05224     -218742.12      0             -218260.96      925.82442    
     56200   328.58225     -218738.78      0             -218256.85      1312.2062    
     56300   330.62669     -218741.73      0             -218256.79      109.52033    
     56400   325.26027     -218742.48      0             -218265.42     -293.85998    
     56500   322.70662     -218744.16      0             -218270.84     -29.456325    
     56600   323.15635     -218742.2       0             -218268.22      64.911473    
     56700   328.01117     -218743.31      0             -218262.21     -361.19969    
     56800   325.85571     -218737.55      0             -218259.61      408.63998    
     56900   327.98086     -218741.21      0             -218260.16     -108.03309    
     57000   325.68396     -218740.47      0             -218262.78      595.33321    
     57100   324.27665     -218740.92      0             -218265.3      -141.07241    
     57200   326.1607      -218744.11      0             -218265.73     -184.47221    
     57300   326.32895     -218738.5       0             -218259.87      986.26052    
     57400   328.57104     -218736.53      0             -218254.61      662.28012    
     57500   328.55544     -218739.96      0             -218258.06      558.2627     
     57600   323.94665     -218741.25      0             -218266.12      169.10453    
     57700   325.13553     -218744.35      0             -218267.47      1026.9493    
     57800   327.14425     -218745.82      0             -218265.99      696.84604    
     57900   324.95307     -218738.38      0             -218261.77     -472.68963    
     58000   330.67996     -218736.77      0             -218251.76      576.72126    
     58100   328.31102     -218733.02      0             -218251.48     -363.63205    
     58200   328.30994     -218738.95      0             -218257.42     -387.71076    
     58300   324.31432     -218738.29      0             -218262.61      235.8858     
     58400   321.58984     -218737.48      0             -218265.8       623.71866    
     58500   324.60551     -218744.58      0             -218268.48      85.383001    
     58600   325.45449     -218743.81      0             -218266.46     -419.17863    
     58700   328.45677     -218738.93      0             -218257.18     -297.05885    
     58800   328.4091      -218737.58      0             -218255.9       517.36647    
     58900   325.27401     -218739.47      0             -218262.38      861.88303    
     59000   323.18538     -218740.79      0             -218266.77      764.23785    
     59100   324.76477     -218742.8       0             -218266.46      276.26095    
     59200   320.5273      -218734.1       0             -218263.97     -572.32527    
     59300   327.88246     -218739.88      0             -218258.97      569.74419    
     59400   328.46873     -218731.9       0             -218250.13      340.65879    
     59500   329.33204     -218729.57      0             -218246.53      595.91861    
     59600   324.1161      -218734.23      0             -218258.85      157.88669    
     59700   323.92085     -218738.9       0             -218263.8      -132.664      
     59800   323.72914     -218742         0             -218267.18      30.779902    
     59900   326.11635     -218743.34      0             -218265.02      497.04543    
     60000   326.13276     -218738.6       0             -218260.25      547.00456    
     60100   326.49497     -218734.69      0             -218255.81      1166.7948    
     60200   327.15109     -218736.35      0             -218256.52      468.49082    
     60300   323.59731     -218740.41      0             -218265.79     -411.04701    
     60400   320.65549     -218738.9       0             -218268.59      599.93091    
     60500   325.47744     -218743.4       0             -218266.02     -857.72558    
     60600   326.0501      -218737.46      0             -218259.24      900.25424    
     60700   327.33845     -218732.98      0             -218252.87      825.39324    
     60800   328.44204     -218736.85      0             -218255.12     -369.64121    
     60900   321.13474     -218737.95      0             -218266.94      999.41915    
     61000   323.55664     -218744.18      0             -218269.61      689.55449    
     61100   323.80768     -218742.79      0             -218267.85     -233.64688    
     61200   329.11584     -218742.78      0             -218260.06      301.78989    
     61300   326.57621     -218736.31      0             -218257.31      878.00579    
     61400   324.75418     -218736.08      0             -218259.75     -809.55873    
     61500   325.8966      -218744.03      0             -218266.03      688.29696    
     61600   322.1575      -218745.69      0             -218273.18      568.81613    
     61700   317.44309     -218748.63      0             -218283.03      73.878963    
     61800   316.57893     -218747         0             -218282.67     -49.796825    
     61900   321.52566     -218744.58      0             -218272.99      1091.5693    
     62000   323.37281     -218739.79      0             -218265.49      350.37103    
     62100   328.35546     -218741.51      0             -218259.91      129.11602    
     62200   328.19753     -218739.01      0             -218257.64      952.53817    
     62300   324.63691     -218738.3       0             -218262.15      6.3343224    
     62400   323.28368     -218743.65      0             -218269.49      1160.4421    
     62500   322.46838     -218742.48      0             -218269.51      1778.1367    
     62600   326.56369     -218745.3       0             -218266.33     -3.4521281    
     62700   325.64271     -218741.38      0             -218263.76      568.9411     
     62800   324.37614     -218739.53      0             -218263.76      173.11948    
     62900   325.70225     -218740.78      0             -218263.07     -670.62555    
     63000   324.21258     -218734.01      0             -218258.49     -769.89137    
     63100   326.62033     -218731.04      0             -218251.98     -507.18171    
     63200   328.99943     -218738         0             -218255.45      316.18984    
     63300   326.91508     -218744.09      0             -218264.6      -137.85635    
     63400   320.74887     -218736.83      0             -218266.38     -55.120889    
     63500   326.00798     -218741.54      0             -218263.38      575.2119     
     63600   327.35518     -218739.09      0             -218258.95     -208.88805    
     63700   327.8713      -218736.03      0             -218255.14      823.17445    
     63800   326.30979     -218733.49      0             -218254.88      1057.5876    
     63900   325.23486     -218740.35      0             -218263.33     -358.39723    
     64000   325.37502     -218743.87      0             -218266.64      278.6206     
     64100   324.23477     -218741.5       0             -218265.94      781.90915    
     64200   327.40791     -218742.33      0             -218262.12     -64.722994    
     64300   327.62655     -218734.19      0             -218253.65     -1285.4109    
     64400   330.07661     -218738.85      0             -218254.73      287.04527    
     64500   324.58771     -218737.77      0             -218261.69      169.25846    
     64600   323.36417     -218738.13      0             -218263.85      651.32093    
     64700   324.8267      -218740.86      0             -218264.43      201.3723     
     64800   323.90446     -218740.18      0             -218265.11     -135.05963    
     64900   329.94216     -218746.88      0             -218262.95      951.54531    
     65000   326.09054     -218736.63      0             -218258.35      988.84808    
     65100   327.47171     -218736.03      0             -218255.73      790.08828    
     65200   326.95058     -218740.95      0             -218261.4       300.87666    
     65300   321.2921      -218739.27      0             -218268.03      137.31199    
     65400   319.967       -218737.11      0             -218267.81     -885.11332    
     65500   325.44999     -218739.96      0             -218262.62     -274.73709    
     65600   325.67238     -218735.42      0             -218257.75      357.99137    
     65700   328.0007      -218738.33      0             -218257.24      180.13798    
     65800   320.46858     -218738.63      0             -218268.6      -215.94704    
     65900   321.23753     -218742.54      0             -218271.37      573.7467     
     66000   323.35756     -218739.63      0             -218265.36      993.84771    
     66100   325.5581      -218737.23      0             -218259.73      677.90464    
     66200   325.89566     -218735.49      0             -218257.49      1317.5744    
     66300   327.73045     -218742.47      0             -218261.78      818.44814    
     66400   318.71267     -218738.93      0             -218271.47      74.300585    
     66500   322.1106      -218742.22      0             -218269.77      677.69073    
     66600   325.14154     -218740.97      0             -218264.08      100.99672    
     66700   324.08913     -218736.81      0             -218261.46     -12.507632    
     66800   322.57044     -218734.67      0             -218261.55      979.91332    
     66900   326.05717     -218741.04      0             -218262.8      -176.87734    
     67000   326.01372     -218745.54      0             -218267.37     -245.21746    
     67100   318.49655     -218739.31      0             -218272.16      1100.377     
     67200   321.12143     -218738.97      0             -218267.97      507.77026    
     67300   324.78698     -218736.94      0             -218260.57      486.76143    
     67400   327.36023     -218739.46      0             -218259.32      311.86384    
     67500   325.35611     -218740.59      0             -218263.39      894.52909    
     67600   322.00564     -218741.11      0             -218268.82      401.12393    
     67700   322.26453     -218741.57      0             -218268.9       1298.0696    
     67800   328.39735     -218742.91      0             -218261.24      165.17176    
     67900   328.35243     -218733.41      0             -218251.81      13.128329    
     68000   327.81864     -218737.7       0             -218256.88     -965.71826    
     68100   324.48359     -218740.44      0             -218264.52      1251.9002    
     68200   326.63444     -218746.99      0             -218267.91     -274.07506    
     68300   325.9865      -218743.15      0             -218265.02     -335.53051    
     68400   323.84955     -218733.42      0             -218258.42      691.01052    
     68500   328.06648     -218735.17      0             -218253.99      647.69796    
     68600   326.61883     -218741.34      0             -218262.28     -908.66764    
     68700   324.1011      -218745.36      0             -218270        -568.65608    
     68800   321.31505     -218739.63      0             -218268.35      1008.8384    
     68900   325.66403     -218740.05      0             -218262.39     -166.98462    
     69000   326.97528     -218737.53      0             -218257.95     -422.09987    
     69100   329.50106     -218742.66      0             -218259.38      1290.1451    
     69200   321.09529     -218741.58      0             -218270.63     -57.314208    
     69300   322.30647     -218743.62      0             -218270.89      446.66299    
     69400   323.15388     -218739.35      0             -218265.38      43.835257    
     69500   326.86573     -218739.94      0             -218260.52     -288.65664    
     69600   325.81294     -218738.59      0             -218260.71      736.72009    
     69700   327.04419     -218744.44      0             -218264.75      363.94458    
     69800   320.04199     -218744.03      0             -218274.61      293.6519     
     69900   322.16417     -218744.74      0             -218272.22     -234.50023    
     70000   322.75936     -218738.84      0             -218265.44      16.15037     
     70100   324.39302     -218738.41      0             -218262.62      103.79003    
     70200   327.24968     -218743.33      0             -218263.35      120.54009    
     70300   324.42998     -218742.61      0             -218266.77      1264.0743    
     70400   324.23345     -218748.87      0             -218273.31     -58.627781    
     70500   323.86358     -218750.63      0             -218275.61     -515.27635    
     70600   321.625       -218739.57      0             -218267.84      669.30394    
     70700   324.46925     -218737.95      0             -218262.04     -215.85781    
     70800   324.12024     -218736.94      0             -218261.55      162.74933    
     70900   322.27852     -218735.49      0             -218262.8       601.62585    
     71000   324.04466     -218742.19      0             -218266.91      532.57116    
     71100   322.88807     -218746.72      0             -218273.13     -517.5365     
     71200   320.28683     -218740.03      0             -218270.26      182.44802    
     71300   326.47883     -218739.82      0             -218260.97     -324.8793     
     71400   323.97976     -218733.68      0             -218258.5      -104.28021    
     71500   328.81306     -218742.17      0             -218259.9       401.73804    
     71600   324.31407     -218741.94      0             -218266.26      844.06474    
     71700   323.57364     -218745.54      0             -218270.95      926.58982    
     71800   322.90207     -218744.03      0             -218270.43      363.25641    
     71900   326.13246     -218737.48      0             -218259.14      830.30776    
     72000   325.50607     -218735.35      0             -218257.92      1283.711     
     72100   328.87223     -218745.06      0             -218262.7       1593.6618    
     72200   323.54622     -218742.85      0             -218268.3       570.77587    
     72300   323.26495     -218742.12      0             -218267.98      239.52178    
     72400   328.10713     -218742.19      0             -218260.95      29.299657    
     72500   326.49757     -218731.46      0             -218252.58     -641.83698    
     72600   324.87844     -218730.78      0             -218254.28      309.58429    
     72700   325.26892     -218736.91      0             -218259.83      610.66446    
     72800   324.36169     -218740.15      0             -218264.4      -193.80596    
     72900   326.3562      -218744.81      0             -218266.14     -225.08229    
     73000   322.48292     -218738.92      0             -218265.93     -532.79553    
     73100   325.76778     -218738.87      0             -218261.06      811.48134    
     73200   328.26085     -218738         0             -218256.53      752.91128    
     73300   327.99149     -218739.95      0             -218258.88      1354.181     
     73400   321.99942     -218740.02      0             -218267.74      768.10092    
     73500   327.07344     -218748.62      0             -218268.9       492.42373    
     73600   323.64435     -218740.4       0             -218265.7      -525.91042    
     73700   323.28573     -218735.85      0             -218261.68      230.25706    
     73800   324.69774     -218735.25      0             -218259.01      96.176196    
     73900   326.41251     -218734.64      0             -218255.89     -591.06713    
     74000   325.39729     -218735.04      0             -218257.77      215.77649    
     74100   325.25413     -218741.22      0             -218264.16     -492.25478    
     74200   322.93409     -218742.56      0             -218268.91      202.92895    
     74300   322.2062      -218740.59      0             -218268.01      482.86077    
     74400   326.81097     -218739.18      0             -218259.84      734.44159    
     74500   329.33691     -218739.16      0             -218256.12      1577.4796    
     74600   326.23543     -218737.65      0             -218259.15      1110.5485    
     74700   327.84684     -218743.11      0             -218262.26      1020.3386    
     74800   324.32284     -218741.14      0             -218265.45      753.71303    
     74900   327.64592     -218747.86      0             -218267.3       100.9966     
     75000   320.75817     -218741.97      0             -218271.51     -396.33808    
     75100   324.45944     -218749.37      0             -218273.48     -244.75023    
     75200   326.23725     -218744.55      0             -218266.05      476.21402    
     75300   326.00787     -218738.63      0             -218260.47      519.05597    
     75400   328.21707     -218740.64      0             -218259.24     -441.72199    
     75500   327.23366     -218741.38      0             -218261.42      940.34886    
     75600   325.53282     -218748.46      0             -218271         328.21466    
     75700   322.18356     -218744.3       0             -218271.75     -841.84695    
     75800   323.4158      -218741.04      0             -218266.68      429.70749    
     75900   325.14316     -218740.29      0             -218263.4       757.9974     
     76000   325.44361     -218740.25      0             -218262.92      725.66937    
     76100   324.81968     -218740.01      0             -218263.59      631.46992    
     76200   319.2839      -218737.91      0             -218269.61      533.56237    
     76300   324.62748     -218751.29      0             -218275.15      1709.7398    
     76400   322.8961      -218744.84      0             -218271.24      710.80248    
     76500   326.15758     -218741.99      0             -218263.61     -228.04338    
     76600   325.24828     -218740.02      0             -218262.98      414.2885     
     76700   325.88737     -218740.45      0             -218262.47     -92.115918    
     76800   324.65355     -218739.67      0             -218263.5      -268.87393    
     76900   321.78762     -218739.81      0             -218267.84      638.76486    
     77000   320.72331     -218742.57      0             -218272.16     -128.59139    
     77100   320.5585      -218738.81      0             -218268.64      457.36966    
     77200   327.13493     -218739.57      0             -218259.75      1398.9224    
     77300   328.98135     -218743.13      0             -218260.61      456.71233    
     77400   324.04091     -218740.33      0             -218265.05      574.35266    
     77500   322.26323     -218741.24      0             -218268.57     -190.60993    
     77600   323.20435     -218747.43      0             -218273.39      92.393322    
     77700   317.64592     -218743.18      0             -218277.28     -28.867192    
     77800   323.83945     -218744.45      0             -218269.47     -125.16722    
     77900   325.43945     -218740.43      0             -218263.1       294.00971    
     78000   326.31632     -218739.05      0             -218260.43      510.98974    
     78100   326.64019     -218740.55      0             -218261.46      646.91758    
     78200   321.77692     -218740.33      0             -218268.37     -35.736244    
     78300   318.34531     -218739.96      0             -218273.04      250.20344    
     78400   323.2985      -218742.23      0             -218268.04      526.02731    
     78500   325.70259     -218740.49      0             -218262.77     -8.2908021    
     78600   327.79886     -218742.64      0             -218261.85      932.66252    
     78700   325.32057     -218739.74      0             -218262.59     -152.24443    
     78800   323.00645     -218738.9       0             -218265.14      47.273148    
     78900   322.27605     -218743.03      0             -218270.34      39.965593    
     79000   321.92069     -218745.68      0             -218273.51      483.09589    
     79100   323.18624     -218741.76      0             -218267.74      459.65611    
     79200   323.76458     -218734.8       0             -218259.93     -1243.6752    
     79300   327.29506     -218739.37      0             -218259.32     -478.26683    
     79400   325.25051     -218740.79      0             -218263.74     -249.66785    
     79500   323.8889      -218745.9       0             -218270.84      1224.9759    
     79600   322.46612     -218743.94      0             -218270.98      711.10438    
     79700   323.94054     -218742.82      0             -218267.7      -645.69171    
     79800   325.05811     -218741.06      0             -218264.29      809.28739    
     79900   328.30983     -218742.76      0             -218261.22      1170.0222    
     80000   325.91721     -218738.34      0             -218260.31      980.49616    
     80100   323.41981     -218740.19      0             -218265.83      214.45769    
     80200   323.26356     -218746.16      0             -218272.03      280.55981    
     80300   321.52181     -218742.33      0             -218270.75     -31.106871    
     80400   327.19924     -218741.04      0             -218261.13     -508.95682    
     80500   327.27635     -218739.74      0             -218259.72     -508.5954     
     80600   324.695       -218739.56      0             -218263.33      40.866439    
     80700   322.26545     -218741.02      0             -218268.35      363.29993    
     80800   325.79683     -218746.97      0             -218269.12      1074.4174    
     80900   322.44774     -218736.61      0             -218263.67     -431.8258     
     81000   325.55629     -218733.5       0             -218256        -89.458415    
     81100   330.61244     -218743.31      0             -218258.39      216.89663    
     81200   327.05556     -218746.13      0             -218266.43      904.25417    
     81300   321.0291      -218740.21      0             -218269.35      1011         
     81400   321.62117     -218739.38      0             -218267.66     -75.383647    
     81500   327.18808     -218741.97      0             -218262.08     -134.68261    
     81600   328.61933     -218736.81      0             -218254.82     -287.20749    
     81700   330.50496     -218734.83      0             -218250.07      256.52608    
     81800   328.48481     -218737.65      0             -218255.85      465.59341    
     81900   323.87293     -218739.81      0             -218264.78      532.58258    
     82000   322.43561     -218742.26      0             -218269.34      617.11336    
     82100   324.38425     -218745.7       0             -218269.92      86.96143     
     82200   324.89385     -218741.1       0             -218264.57     -31.114556    
     82300   324.203       -218733.7       0             -218258.19      278.95708    
     82400   327.75588     -218739.06      0             -218258.34      258.38655    
     82500   322.68498     -218741.87      0             -218268.59     -400.16715    
     82600   325.45528     -218748.59      0             -218271.24     -324.23389    
     82700   326.76297     -218747.91      0             -218268.64      640.24931    
     82800   325.69141     -218740.12      0             -218262.42     -317.80119    
     82900   326.43889     -218737.8       0             -218259.01     -223.31504    
     83000   326.12279     -218740.91      0             -218262.58      276.51856    
     83100   325.37438     -218746.08      0             -218268.85      336.81847    
     83200   323.19064     -218744.52      0             -218270.49     -226.99413    
     83300   323.59783     -218743.67      0             -218269.04      454.73944    
     83400   326.09673     -218743.75      0             -218265.46     -491.8631     
     83500   325.03946     -218739.72      0             -218262.98     -481.65331    
     83600   331.95084     -218747.4       0             -218260.52      532.41406    
     83700   323.72961     -218736.85      0             -218262.03      398.66061    
     83800   319.0004      -218737.37      0             -218269.49      981.81208    
     83900   323.79827     -218748.34      0             -218273.42     -395.57155    
     84000   322.94511     -218743.77      0             -218270.1       314.58202    
     84100   320.81815     -218731.43      0             -218260.88      509.50759    
     84200   328.91269     -218741.63      0             -218259.21     -437.82986    
     84300   326.07284     -218742.38      0             -218264.12     -262.71779    
     84400   324.35049     -218744.59      0             -218268.86     -13.773869    
     84500   324.72391     -218745.56      0             -218269.28     -32.276598    
     84600   328.26627     -218743.05      0             -218261.58      18.315504    
     84700   331.0524      -218741.16      0             -218255.6      -94.991828    
     84800   328.62467     -218741.49      0             -218259.49     -265.87346    
     84900   324.99586     -218740.81      0             -218264.14      502.47023    
     85000   325.62209     -218745.11      0             -218267.52     -6.3713284    
     85100   325.77492     -218746.31      0             -218268.49     -50.845062    
     85200   325.06851     -218744.02      0             -218267.24     -276.07699    
     85300   325.6575      -218736.12      0             -218258.47      1159.146     
     85400   327.79817     -218737.69      0             -218256.9      -1031.5735    
     85500   324.50778     -218739.36      0             -218263.4       478.15319    
     85600   326.0882      -218746.04      0             -218267.76      398.0699     
     85700   322.91679     -218742.54      0             -218268.92     -435.40802    
     85800   324.83902     -218745.1       0             -218268.66     -850.77961    
     85900   323.5937      -218740.77      0             -218266.15     -823.89949    
     86000   328.73948     -218740.06      0             -218257.9      -547.75364    
     86100   329.6326      -218741.23      0             -218257.75      146.44138    
     86200   322.42053     -218739.67      0             -218266.77     -1344.6258    
     86300   321.17428     -218740.82      0             -218269.75     -162.72419    
     86400   324.86703     -218745.78      0             -218269.29      552.28587    
     86500   325.70811     -218744.18      0             -218266.46      670.60008    
     86600   327.66369     -218738.78      0             -218258.19      553.74229    
     86700   328.83649     -218739.62      0             -218257.31     -578.6591     
     86800   323.145       -218740.11      0             -218266.15      267.98051    
     86900   323.34753     -218743.59      0             -218269.34      1584.3947    
     87000   318.91697     -218736.12      0             -218268.36     -33.184084    
     87100   325.94771     -218743.41      0             -218265.34      1187.3304    
     87200   327.16169     -218743.9       0             -218264.04     -1048.2486    
     87300   326.06785     -218743.33      0             -218265.08     -825.18807    
     87400   322.94912     -218745.48      0             -218271.81     -142.2161     
     87500   323.2468      -218748.56      0             -218274.45      108.34816    
     87600   321.08649     -218739.93      0             -218268.99      234.78021    
     87700   325.91515     -218739.09      0             -218261.06      475.1901     
     87800   326.65628     -218741.56      0             -218262.45      368.08109    
     87900   323.36094     -218741.44      0             -218267.16      350.88535    
     88000   325.63755     -218748.85      0             -218271.23      178.76507    
     88100   320.44061     -218742.46      0             -218272.46     -373.40499    
     88200   325.80616     -218743.74      0             -218265.87      456.12753    
     88300   326.01164     -218738.35      0             -218260.18      246.00521    
     88400   326.99787     -218740.83      0             -218261.22     -750.08127    
     88500   324.08475     -218744.6       0             -218269.26      1884.9207    
     88600   322.88949     -218745.9       0             -218272.31      314.22331    
     88700   324.68763     -218745.62      0             -218269.39      313.40838    
     88800   320.94892     -218737.54      0             -218266.8       409.30653    
     88900   328.90417     -218746.98      0             -218264.58      68.51348     
     89000   325.25152     -218742.03      0             -218264.98      708.84349    
     89100   323.84343     -218741.34      0             -218266.36      506.51529    
     89200   326.04822     -218746.08      0             -218267.86      846.29663    
     89300   323.67983     -218743.49      0             -218268.74      686.68487    
     89400   324.61592     -218743.14      0             -218267.02     -299.65069    
     89500   325.13061     -218740.46      0             -218263.59     -179.71047    
     89600   326.102       -218737.3       0             -218259.01      1057.5683    
     89700   325.64753     -218736.4       0             -218258.77      17.455978    
     89800   325.32338     -218745.15      0             -218267.99      908.23181    
     89900   323.0454      -218744.83      0             -218271.01      162.17889    
     90000   326.55036     -218748.31      0             -218269.35      656.08633    
     90100   323.93299     -218740.53      0             -218265.41      365.48704    
     90200   330.17304     -218742.38      0             -218258.11     -1241.4146    
     90300   329.73194     -218736.77      0             -218253.15      827.59553    
     90400   329.31081     -218745.36      0             -218262.36     -53.327426    
     90500   324.77776     -218745.23      0             -218268.87      714.25073    
     90600   326.69601     -218748.19      0             -218269.02      1836.9254    
     90700   326.07583     -218746.68      0             -218268.42      276.17925    
     90800   326.80051     -218743.27      0             -218263.95     -239.50266    
     90900   327.53998     -218739.94      0             -218259.53     -427.60626    
     91000   325.96041     -218736.55      0             -218258.46     -447.67983    
     91100   321.40763     -218737.86      0             -218266.45      603.8467     
     91200   322.82208     -218746.17      0             -218272.68     -175.45349    
     91300   323.46337     -218746.23      0             -218271.8       472.9315     
     91400   326.38817     -218744.8       0             -218266.08      969.0217     
     91500   330.5275      -218744.62      0             -218259.83      249.28963    
     91600   329.40523     -218740.96      0             -218257.82      688.8097     
     91700   327.9142      -218746.32      0             -218265.36      377.32505    
     91800   325.59304     -218748.98      0             -218271.43     -990.76481    
     91900   323.02075     -218746         0             -218272.22     -728.73538    
     92000   324.99581     -218744.19      0             -218267.52     -1052.3011    
     92100   328.44211     -218743.16      0             -218261.43     -723.41223    
     92200   326.70437     -218740.63      0             -218261.45     -337.14834    
     92300   325.66657     -218748.42      0             -218270.76      202.81988    
     92400   326.34549     -218753.66      0             -218275.01      1584.242     
     92500   325.72269     -218748.74      0             -218271         958.77821    
     92600   323.29673     -218739.42      0             -218265.24     -116.87584    
     92700   328.88015     -218746.36      0             -218263.99      141.38254    
     92800   325.71282     -218744.32      0             -218266.59     -93.964731    
     92900   320.01768     -218746.32      0             -218276.94      140.4258     
     93000   323.81093     -218752.31      0             -218277.37      788.94097    
     93100   321.6312      -218743.51      0             -218271.77      110.89214    
     93200   322.42415     -218739.67      0             -218266.76      500.38085    
     93300   327.7566      -218745.96      0             -218265.23      546.91034    
     93400   323.40317     -218740.15      0             -218265.81     -0.61948863   
     93500   322.60453     -218742.86      0             -218269.7       18.778584    
     93600   321.86385     -218747.17      0             -218275.09     -470.8185     
     93700   319.49899     -218743.06      0             -218274.45      438.78316    
     93800   326.3371      -218744.17      0             -218265.53      699.18775    
     93900   325.29177     -218738.93      0             -218261.82     -689.95075    
     94000   323.76456     -218738.24      0             -218263.37     -580.09484    
     94100   322.75045     -218742.86      0             -218269.48     -70.138263    
     94200   322.88584     -218748.14      0             -218274.56      552.42434    
     94300   327.7774      -218751.33      0             -218270.58      329.31603    
     94400   327.52474     -218739.25      0             -218258.86     -43.907498    
     94500   325.33851     -218737.63      0             -218260.45      629.52612    
     94600   325.4342      -218745         0             -218267.68     -696.53829    
     94700   322.07802     -218744.12      0             -218271.73     -356.55153    
     94800   323.81476     -218744.89      0             -218269.94      568.11616    
     94900   326.6476      -218741.35      0             -218262.25     -528.37819    
     95000   323.87051     -218732.53      0             -218257.51     -1093.1256    
     95100   325.78076     -218738.21      0             -218260.39     -849.47454    
     95200   325.05037     -218741.24      0             -218264.49      420.11911    
     95300   327.71153     -218748.55      0             -218267.89     -1081.4277    
     95400   324.30239     -218746.72      0             -218271.06     -334.69377    
     95500   326.95669     -218749.73      0             -218270.18      475.77345    
     95600   324.41493     -218736.27      0             -218260.45      374.59564    
     95700   325.56116     -218736.8       0             -218259.29      1428.6344    
     95800   327.05286     -218745.01      0             -218265.31      1195.9732    
     95900   326.61877     -218748.41      0             -218269.35      1136.0672    
     96000   322.8217      -218742.94      0             -218269.46      263.46731    
     96100   328.1013      -218748.65      0             -218267.42      1069.3312    
     96200   326.7865      -218741.72      0             -218262.42      139.26976    
     96300   327.16743     -218731.88      0             -218252.02      369.30194    
     96400   329.48941     -218737.73      0             -218254.47     -18.271448    
     96500   329.5374      -218743.79      0             -218260.45      543.93369    
     96600   325.48296     -218743.14      0             -218265.75      57.601775    
     96700   324.70563     -218746.49      0             -218270.24      851.88313    
     96800   322.69675     -218745.71      0             -218272.4       550.41567    
     96900   324.83512     -218742.69      0             -218266.25     -78.65311     
     97000   326.94634     -218738.09      0             -218258.55      301.5208     
     97100   325.7859      -218738.83      0             -218261        -367.095      
     97200   325.63317     -218743.7       0             -218266.08      21.901693    
     97300   324.1906      -218744.31      0             -218268.81     -775.34659    
     97400   323.54218     -218743.17      0             -218268.62     -780.19839    
     97500   327.92772     -218747.4       0             -218266.42     -125.4529     
     97600   323.60056     -218741.31      0             -218266.68      240.95895    
     97700   324.86588     -218743.91      0             -218267.42      1358.3751    
     97800   325.21567     -218744.7       0             -218267.7       82.658475    
     97900   323.97104     -218742.16      0             -218266.99      195.35771    
     98000   325.85993     -218739.23      0             -218261.29      449.81796    
     98100   328.58526     -218735.03      0             -218253.08      804.45981    
     98200   328.22807     -218739.25      0             -218257.84      786.31308    
     98300   326.82172     -218744.72      0             -218265.37      394.41573    
     98400   327.10996     -218747.74      0             -218267.97      22.435525    
     98500   324.57768     -218744.58      0             -218268.51     -89.074496    
     98600   323.28821     -218741.77      0             -218267.6      -223.34787    
     98700   328.96579     -218743.74      0             -218261.24      342.05524    
     98800   327.63751     -218738.22      0             -218257.67      176.10974    
     98900   329.27401     -218745.92      0             -218262.97     -461.03435    
     99000   323.24672     -218745.02      0             -218270.91      969.53215    
     99100   323.0055      -218744.98      0             -218271.22     -264.56994    
     99200   322.41786     -218740.54      0             -218267.64      355.69115    
     99300   326.59043     -218741         0             -218261.99     -751.2628     
     99400   325.67767     -218737.58      0             -218259.9      -408.83867    
     99500   322.40964     -218741.15      0             -218268.27      718.33346    
     99600   322.27537     -218747.51      0             -218274.82     -525.39009    
     99700   323.63267     -218747.42      0             -218272.75     -324.32075    
     99800   326.54264     -218744.93      0             -218265.99      704.60986    
     99900   325.52647     -218738.65      0             -218261.2      -601.40035    
    100000   325.62142     -218739.82      0             -218262.23      232.4204     
    100100   325.80842     -218745.01      0             -218267.15     -588.59292    
    100200   323.56759     -218745.38      0             -218270.8      -514.21457    
    100300   326.00666     -218748.61      0             -218270.45      492.39546    
    100400   324.59697     -218743.93      0             -218267.84      492.44863    
    100500   327.823       -218744         0             -218263.18      949.01017    
    100600   326.91187     -218740.65      0             -218261.16      966.22762    
    100700   324.85447     -218741.62      0             -218265.15      595.97365    
    100800   322.70706     -218746.6       0             -218273.29     -932.25266    
    100900   323.65377     -218746.22      0             -218271.51      652.02983    
    101000   325.54875     -218744.13      0             -218266.65     -557.41763    
    101100   326.15221     -218741.62      0             -218263.25     -1030.5988    
    101200   325.01218     -218740.72      0             -218264.02     -565.74031    
    101300   322.40011     -218738.83      0             -218265.96     -482.63962    
    101400   326.66591     -218746.36      0             -218267.23      515.70081    
    101500   323.3511      -218746.52      0             -218272.25      384.83785    
    101600   325.2337      -218753.96      0             -218276.94     -43.494973    
    101700   322.15395     -218745.29      0             -218272.78      112.72011    
    101800   326.02068     -218742.31      0             -218264.13      1017.3074    
    101900   327.01025     -218741.72      0             -218262.09      395.41533    
    102000   325.0433      -218741.06      0             -218264.32      151.67486    
    102100   320.06562     -218740.55      0             -218271.1      -141.17155    
    102200   321.8559      -218748.41      0             -218276.34     -430.07633    
    102300   318.80704     -218745.68      0             -218278.08     -697.89766    
    102400   327.31908     -218748.27      0             -218268.19     -182.99062    
    102500   325.57141     -218740.46      0             -218262.94     -609.09734    
    102600   323.6815      -218735.95      0             -218261.2      -649.02589    
    102700   323.60968     -218740.75      0             -218266.11     -1090.3516    
    102800   323.25032     -218746.72      0             -218272.61      582.32178    
    102900   321.02396     -218746.97      0             -218276.12      608.61019    
    103000   325.13295     -218742.85      0             -218265.98      1898.9629    
    103100   321.41289     -218733.63      0             -218262.21      1170.9095    
    103200   326.78617     -218744.31      0             -218265         830.68047    
    103300   323.80768     -218745.33      0             -218270.4       126.18668    
    103400   321.70919     -218743.33      0             -218271.48     -251.71412    
    103500   325.60541     -218745.27      0             -218267.7      -453.53643    
    103600   327.5904      -218739.15      0             -218258.67     -713.01984    
    103700   329.3141      -218742.99      0             -218259.98      166.18806    
    103800   323.53588     -218740.62      0             -218266.09      145.41704    
    103900   325.03358     -218744.94      0             -218268.21      8.4571882    
    104000   324.45194     -218744.12      0             -218268.25     -232.92846    
    104100   324.45841     -218743.09      0             -218267.2      -585.17797    
    104200   327.46894     -218744.85      0             -218264.54      1035.2879    
    104300   328.12729     -218738.33      0             -218257.06      304.62662    
    104400   329.46788     -218737.79      0             -218254.55      484.59941    
    104500   324.73335     -218739.7       0             -218263.41      1117.5928    
    104600   325.29463     -218744.99      0             -218267.88      745.80083    
    104700   321.61068     -218741.6       0             -218269.89     -564.74561    
    104800   324.76725     -218746.63      0             -218270.29     -678.36371    
    104900   327.80673     -218743.38      0             -218262.58     -791.64872    
    105000   325.69482     -218735.6       0             -218257.9       1368.0246    
    105100   326.40723     -218740.71      0             -218261.96      1236.1914    
    105200   325.3877      -218744.83      0             -218267.58     -172.38981    
    105300   324.70906     -218745.37      0             -218269.12      362.70157    
    105400   320.95679     -218738.8       0             -218268.05      0.5359111    
    105500   321.93014     -218737.5       0             -218265.32      992.96657    
    105600   325.45558     -218737.26      0             -218259.91      60.931863    
    105700   329.07655     -218738.7       0             -218256.04      150.35751    
    105800   325.6298      -218741.67      0             -218264.06     -10.007682    
    105900   323.56514     -218744.61      0             -218270.04     -664.59048    
    106000   326.74405     -218749.06      0             -218269.81     -59.528243    
    106100   326.75628     -218745.75      0             -218266.49      88.314368    
    106200   331.57756     -218745.27      0             -218258.94      215.66436    
    106300   326.93111     -218739.3       0             -218259.79      1030.7055    
    106400   326.04499     -218746.11      0             -218267.89      873.5235     
    106500   325.01754     -218746.07      0             -218269.36      434.88729    
    106600   322.1367      -218741.47      0             -218268.99     -443.00979    
    106700   326.24087     -218744.95      0             -218266.45     -18.525102    
    106800   327.13954     -218741.12      0             -218261.3       664.33       
    106900   330.09659     -218743.28      0             -218259.13      17.142306    
    107000   324.15507     -218741.99      0             -218266.55      666.24982    
    107100   324.74764     -218748.11      0             -218271.8      -588.14428    
    107200   324.74777     -218747.14      0             -218270.83     -319.77892    
    107300   326.13945     -218741.63      0             -218263.27     -57.63538     
    107400   327.10598     -218739.9       0             -218260.13      380.65482    
    107500   325.44018     -218740.96      0             -218263.63      17.824614    
    107600   325.55454     -218744         0             -218266.5       245.73227    
    107700   323.58491     -218744.18      0             -218269.57     -10.647288    
    107800   327.59138     -218755.1       0             -218274.61     -116.4857     
    107900   321.70969     -218752.48      0             -218280.62      515.8464     
    108000   322.0984      -218746.76      0             -218274.33     -284.55951    
    108100   323.10378     -218741.19      0             -218267.29     -597.32763    
    108200   328.68635     -218747.09      0             -218265        -173.33445    
    108300   324.2106      -218740.63      0             -218265.11     -215.9466     
    108400   323.01594     -218742.01      0             -218268.24      448.20101    
    108500   323.03656     -218748.92      0             -218275.12      257.51563    
    108600   319.44004     -218744.54      0             -218276.01     -597.77198    
    108700   322.7888      -218740.04      0             -218266.6      -334.80589    
    108800   324.5363      -218740.68      0             -218264.68     -389.99449    
    108900   325.30434     -218743.38      0             -218266.25      342.26831    
    109000   321.00746     -218741.57      0             -218270.75     -602.46069    
    109100   322.90857     -218746.63      0             -218273.01     -253.60615    
    109200   319.25398     -218741.56      0             -218273.3       254.29151    
    109300   330.36261     -218750.15      0             -218265.61     -630.66065    
    109400   328.48614     -218743.32      0             -218261.53      927.15484    
    109500   323.68684     -218739.35      0             -218264.6       914.36228    
    109600   324.94416     -218748.17      0             -218271.57      290.20228    
    109700   321.94825     -218747.67      0             -218275.46     -455.27335    
    109800   326.68322     -218747.76      0             -218268.61     -162.50231    
    109900   327.75969     -218741.19      0             -218260.46      256.41203    
    110000   326.89725     -218741.24      0             -218261.78     -392.23778    
    110100   325.9687      -218746.67      0             -218268.57     -1439.2423    
    110200   321.2611      -218743.87      0             -218272.67     -445.59201    
    110300   318.58284     -218738.94      0             -218271.67     -543.57138    
    110400   325.95031     -218740.5       0             -218262.43     -1872.2445    
    110500   327.45737     -218738.25      0             -218257.97     -699.35144    
    110600   327.09172     -218740.87      0             -218261.12     -514.65497    
    110700   322.03726     -218739.08      0             -218266.74      50.027079    
    110800   325.27202     -218746.43      0             -218269.34      954.68084    
    110900   329.35582     -218751.25      0             -218268.18      1008.6589    
    111000   325.10183     -218739.2       0             -218262.37      457.05544    
    111100   329.17495     -218737.99      0             -218255.18      189.02181    
    111200   325.69993     -218738.33      0             -218260.62     -445.45566    
    111300   323.71649     -218742.14      0             -218267.34     -810.82898    
    111400   326.88918     -218747.41      0             -218267.96     -372.23321    
    111500   322.32635     -218741.35      0             -218268.59      27.241962    
    111600   323.86765     -218744.31      0             -218269.29      574.20232    
    111700   327.02739     -218744.49      0             -218264.83     -300.30089    
    111800   329.8955      -218743.87      0             -218260.01     -697.4747     
    111900   324.64105     -218738.49      0             -218262.33     -409.60635    
    112000   321.95449     -218743.78      0             -218271.56      348.89332    
    112100   322.95809     -218746.99      0             -218273.3       975.66185    
    112200   325.73037     -218747.67      0             -218269.91      964.44926    
    112300   323.98724     -218740.7       0             -218265.5       99.673892    
    112400   325.4122      -218741.07      0             -218263.79     -222.72921    
    112500   324.88198     -218742.61      0             -218266.1      -340.15359    
    112600   322.71331     -218746.03      0             -218272.71     -11.945662    
    112700   320.46468     -218743.63      0             -218273.6       42.778198    
    112800   326.57916     -218746.64      0             -218267.64     -600.0941     
    112900   324.9258      -218739.38      0             -218262.8       77.962718    
    113000   327.97986     -218745.1       0             -218264.05     -181.05693    
    113100   321.90434     -218744.16      0             -218272.02     -371.58115    
    113200   323.67676     -218752.73      0             -218277.99     -247.19905    
    113300   321.04684     -218746.21      0             -218275.32      591.06352    
    113400   320.80342     -218740.2       0             -218269.67      631.90743    
    113500   322.72321     -218737.97      0             -218264.63      341.29275    
    113600   325.87938     -218741.08      0             -218263.11      922.20539    
    113700   324.49295     -218745.05      0             -218269.11     -527.48836    
    113800   323.04416     -218750.62      0             -218276.8      -1138.1738    
    113900   322.26094     -218747.02      0             -218274.36     -484.08976    
    114000   324.06022     -218744.96      0             -218269.66     -483.00009    
    114100   324.82093     -218741.9       0             -218265.48     -106.73055    
    114200   327.9726      -218745.63      0             -218264.59     -272.44032    
    114300   323.07026     -218743.69      0             -218269.84      10.798735    
    114400   321.50729     -218750.21      0             -218278.65     -91.237268    
    114500   322.19305     -218748.97      0             -218276.41     -1037.2074    
    114600   325.48875     -218746.89      0             -218269.49     -564.51737    
    114700   323.91492     -218742.14      0             -218267.05      135.03373    
    114800   325.57005     -218744.1       0             -218266.58     -206.85061    
    114900   324.25207     -218742.64      0             -218267.06      432.29429    
    115000   326.45902     -218749.93      0             -218271.11     -99.542928    
    115100   320.87848     -218746.56      0             -218275.93      6.8003721    
    115200   320.93686     -218745.7       0             -218274.98      719.33912    
    115300   326.89978     -218745.13      0             -218265.66     -649.37709    
    115400   325.04612     -218739.85      0             -218263.1      -435.20511    
    115500   327.67758     -218745.57      0             -218264.96     -874.23881    
    115600   321.65557     -218741.23      0             -218269.45      9.2492366    
    115700   322.25108     -218750.56      0             -218277.91      188.30255    
    115800   319.97478     -218752.24      0             -218282.93     -277.14965    
    115900   318.60263     -218744.97      0             -218277.67      285.7334     
    116000   325.68729     -218749.19      0             -218271.5       475.36973    
    116100   324.47653     -218743.67      0             -218267.76      314.44765    
    116200   326.28631     -218742.3       0             -218263.73     -34.842883    
    116300   325.93677     -218739.66      0             -218261.6      -264.78239    
    116400   323.72553     -218740.84      0             -218266.03      84.005964    
    116500   321.41086     -218745.31      0             -218273.89     -395.79024    
    116600   321.94642     -218746.08      0             -218273.88     -617.23415    
    116700   322.75153     -218740.42      0             -218267.03     -577.81761    
    116800   325.39513     -218740.86      0             -218263.6      -862.62471    
    116900   324.05664     -218739.81      0             -218264.52     -642.91509    
    117000   326.54682     -218745.44      0             -218266.49     -905.14911    
    117100   328.13984     -218750.89      0             -218269.61      614.87604    
    117200   324.05627     -218747.24      0             -218271.94      119.27381    
    117300   322.97182     -218749.97      0             -218276.26      70.452043    
    117400   320.56816     -218744.32      0             -218274.14      825.79565    
    117500   324.10826     -218741.92      0             -218266.55     -53.318775    
    117600   327.38765     -218743.96      0             -218263.77     -562.59442    
    117700   325.762       -218743.82      0             -218266.02      258.88012    
    117800   324.32757     -218750.53      0             -218274.84      89.483564    
    117900   321.23578     -218746.9       0             -218275.73     -554.13391    
    118000   322.19034     -218744.6       0             -218272.04     -236.88535    
    118100   323.07354     -218742.15      0             -218268.29     -803.09175    
    118200   328.76758     -218746.98      0             -218264.77     -138.44209    
    118300   327.93491     -218745.48      0             -218264.49     -5.4700613    
    118400   325.22379     -218749.24      0             -218272.23      919.0331     
    118500   321.80252     -218750.04      0             -218278.05      800.07935    
    118600   320.46214     -218744.5       0             -218274.48      429.14912    
    118700   326.66553     -218746.1       0             -218266.97     -529.98387    
    118800   326.30386     -218745.34      0             -218266.75     -438.60905    
    118900   325.19774     -218744.24      0             -218267.27      242.9185     
    119000   325.87972     -218747.84      0             -218269.86     -136.9776     
    119100   322.38744     -218749.42      0             -218276.57      391.48289    
    119200   324.40802     -218754.18      0             -218278.37      215.80206    
    119300   324.84222     -218745.8       0             -218269.34     -639.07154    
    119400   326.71432     -218744.62      0             -218265.43      133.57513    
    119500   324.74891     -218742.74      0             -218266.43      460.52593    
    119600   324.50106     -218744.95      0             -218269         333.71287    
    119700   321.81565     -218745.89      0             -218273.88      752.7235     
    119800   323.80528     -218753.09      0             -218278.16      1059.4984    
    119900   323.54193     -218745.99      0             -218271.44      397.51618    
    120000   328.31259     -218745.94      0             -218264.4       457.71131    
    120100   326.43705     -218743.86      0             -218265.07      61.158264    
    120200   322.39132     -218742.25      0             -218269.39      419.35976    
    120300   318.83533     -218741.92      0             -218274.28      710.31213    
    120400   320.52926     -218747.36      0             -218277.24     -260.37808    
    120500   324.01642     -218749.38      0             -218274.14     -987.95002    
    120600   324.36708     -218740.91      0             -218265.15     -494.49519    
    120700   325.24722     -218739.19      0             -218262.15     -233.49032    
    120800   327.50461     -218744.37      0             -218264.01     -645.96145    
    120900   325.32543     -218749.09      0             -218271.93     -1036.5137    
    121000   319.82173     -218744.69      0             -218275.6      -638.73471    
    121100   322.0362      -218744.72      0             -218272.38     -811.25602    
    121200   326.12774     -218747.16      0             -218268.82      170.2618     
    121300   324.70547     -218742.84      0             -218266.59      344.20536    
    121400   325.51962     -218743.04      0             -218265.6      -375.53498    
    121500   323.55825     -218744.76      0             -218270.19      458.72253    
    121600   321.80639     -218749.71      0             -218277.71     -1011.0361    
    121700   321.56304     -218747.38      0             -218275.74     -544.05527    
    121800   325.47847     -218745.22      0             -218267.83      657.91928    
    121900   326.83374     -218744.43      0             -218265.06     -627.1439     
    122000   324.95719     -218742.01      0             -218265.39     -1003.6086    
    122100   325.23081     -218745.17      0             -218268.15     -188.79065    
    122200   323.66069     -218750.98      0             -218276.26      171.91827    
    122300   323.82026     -218752.69      0             -218277.74     -751.04772    
    122400   324.43945     -218743.75      0             -218267.89      23.440725    
    122500   329.64467     -218747.13      0             -218263.63     -330.4992     
    122600   324.42449     -218741.07      0             -218265.23     -229.79377    
    122700   324.29973     -218744.48      0             -218268.82     -142.6009     
    122800   324.94665     -218748.87      0             -218272.27      619.92755    
    122900   324.20715     -218749.13      0             -218273.61     -19.073478    
    123000   326.2603      -218747.77      0             -218269.24      720.87106    
    123100   331.43127     -218747.57      0             -218261.45      172.15917    
    123200   326.73919     -218740.1       0             -218260.87     -690.89861    
    123300   325.97599     -218744.98      0             -218266.86     -1213.7607    
    123400   326.3767      -218752.23      0             -218273.53      266.3051     
    123500   323.67519     -218746.63      0             -218271.89     -316.87049    
    123600   322.45535     -218741.08      0             -218268.13      938.46983    
    123700   326.94657     -218742.68      0             -218263.14      384.16151    
    123800   329.97009     -218744.57      0             -218260.6      -120.29684    
    123900   325.99666     -218744.53      0             -218266.39      890.26898    
    124000   324.7674      -218749.84      0             -218273.5      -1201.8424    
    124100   324.15934     -218749.44      0             -218273.99     -1191.4354    
    124200   325.91085     -218746.21      0             -218268.19     -16.03045     
    124300   326.67108     -218741.74      0             -218262.61     -774.09537    
    124400   326.51729     -218740.86      0             -218261.95      586.91815    
    124500   322.83835     -218744.23      0             -218270.72      746.12503    
    124600   323.20933     -218750.17      0             -218276.12     -221.75757    
    124700   323.13789     -218745.51      0             -218271.56     -50.158806    
    124800   323.47876     -218740.16      0             -218265.71     -521.57047    
    124900   328.57026     -218745.57      0             -218263.66      401.67318    
    125000   325.57805     -218744.05      0             -218266.52     -753.92577    
    125100   325.68499     -218752.1       0             -218274.42      671.411      
    125200   324.44643     -218753.57      0             -218277.7       853.39455    
    125300   320.25402     -218741.54      0             -218271.82      1054.0071    
    125400   325.8098      -218742.22      0             -218264.35     -505.41397    
    125500   323.3402      -218740.15      0             -218265.9      -1291.6345    
    125600   326.37012     -218748.16      0             -218269.47     -1069.5163    
    125700   324.98259     -218750.19      0             -218273.54      788.25096    
    125800   323.29017     -218749.53      0             -218275.36     -351.16208    
    125900   324.90202     -218746.86      0             -218270.33     -819.38558    
    126000   324.91925     -218738.82      0             -218262.26      133.04797    
    126100   322.43263     -218734.53      0             -218261.62     -952.16972    
    126200   323.93889     -218742.1       0             -218266.98     -46.443346    
    126300   325.71815     -218751.59      0             -218273.85     -481.67859    
    126400   322.96071     -218748.88      0             -218275.19      388.51606    
    126500   321.57863     -218744.41      0             -218272.74      1136.8718    
    126600   328.17704     -218749.66      0             -218268.32     -90.404993    
    126700   329.37869     -218747.45      0             -218264.34      938.36815    
    126800   325.76089     -218743.34      0             -218265.54      289.22201    
    126900   325.66328     -218751.37      0             -218273.71     -157.68833    
    127000   320.58184     -218747.47      0             -218277.27     -664.10035    
    127100   323.65247     -218746.86      0             -218272.15      48.223613    
    127200   323.34415     -218741.16      0             -218266.9      -395.62166    
    127300   325.27499     -218743.32      0             -218266.23      568.85099    
    127400   329.82583     -218749.6       0             -218265.84      152.72357    
    127500   324.24014     -218743.74      0             -218268.17     -1141.992     
    127600   325.54021     -218752.97      0             -218275.5       104.44973    
    127700   321.11627     -218750.28      0             -218279.29      694.40811    
    127800   324.20926     -218747.2       0             -218271.68     -813.34754    
    127900   322.52724     -218739.88      0             -218266.83     -618.86473    
    128000   324.50329     -218742.78      0             -218266.82     -633.79378    
    128100   330.47715     -218753.34      0             -218268.62     -602.59278    
    128200   325.912       -218750.26      0             -218272.24     -40.822476    
    128300   322.43869     -218747.8       0             -218274.88     -367.02385    
    128400   324.96289     -218749.11      0             -218272.48      146.73086    
    128500   327.90177     -218744.54      0             -218263.6      -304.97052    
    128600   326.74773     -218741.31      0             -218262.06     -34.892712    
    128700   325.65473     -218744.56      0             -218266.92     -247.55237    
    128800   325.13533     -218747.76      0             -218270.88     -482.71664    
    128900   324.30559     -218747         0             -218271.33      21.997848    
    129000   327.67256     -218750.65      0             -218270.05     -657.47011    
    129100   327.87794     -218750.44      0             -218269.53     -797.4845     
    129200   326.23198     -218746.44      0             -218267.95      526.27537    
    129300   324.73623     -218742.5       0             -218266.21     -435.76727    
    129400   324.2176      -218741.01      0             -218265.47      560.32818    
    129500   322.85773     -218743.55      0             -218270.01     -279.5731     
    129600   322.57282     -218749.29      0             -218276.17     -356.84169    
    129700   320.29351     -218745.06      0             -218275.28     -390.76141    
    129800   327.37725     -218745.44      0             -218265.27     -161.33089    
    129900   324.20005     -218739.23      0             -218263.72      193.6694     
    130000   324.57746     -218743.4       0             -218267.34     -232.29622    
    130100   325.7289      -218749.13      0             -218271.38      233.96365    
    130200   319.87377     -218742.64      0             -218273.48      422.82373    
    130300   326.88708     -218750.83      0             -218271.38      42.352838    
    130400   326.00611     -218741.74      0             -218263.59     -861.59532    
    130500   327.0345      -218740.81      0             -218261.15      191.40746    
    130600   323.30369     -218740.89      0             -218266.69     -399.96502    
    130700   321.66996     -218744.48      0             -218272.68     -451.01302    
    130800   321.60733     -218744.89      0             -218273.18      381.33079    
    130900   324.58529     -218747.21      0             -218271.13      350.23227    
    131000   320.04384     -218738.36      0             -218268.95      126.84198    
    131100   327.54475     -218745.98      0             -218265.57      144.08756    
    131200   328.67626     -218745.99      0             -218263.92     -112.93917    
    131300   322.02772     -218739.49      0             -218267.16     -103.67206    
    131400   322.59511     -218745.06      0             -218271.91     -119.92071    
    131500   322.12434     -218747.57      0             -218275.11     -2533.8271    
    131600   319.42285     -218739.41      0             -218270.91     -709.03982    
    131700   327.64202     -218743.72      0             -218263.16     -214.07609    
    131800   326.34412     -218742.91      0             -218264.25     -671.44012    
    131900   321.87608     -218740.67      0             -218268.57     -1331.2569    
    132000   323.13664     -218748.06      0             -218274.12      605.3744     
    132100   322.92334     -218749.86      0             -218276.22      1867.3877    
    132200   324.49195     -218745.57      0             -218269.63      1002.3687    
    132300   323.95733     -218737.9       0             -218262.74      835.77179    
    132400   323.88159     -218737.49      0             -218262.44     -328.93379    
    132500   323.94989     -218743.8       0             -218268.66     -632.66385    
    132600   322.76821     -218747.09      0             -218273.68     -275.33225    
    132700   327.33748     -218752.49      0             -218272.38     -1105.2143    
    132800   329.15669     -218750.57      0             -218267.79      221.67716    
    132900   327.52118     -218745.66      0             -218265.28      574.15512    
    133000   324.28382     -218741.17      0             -218265.54     -175.66335    
    133100   323.6062      -218741.39      0             -218266.75     -75.322756    
    133200   320.97511     -218741.28      0             -218270.5      -665.90795    
    133300   324.00517     -218747.5       0             -218272.28     -151.76303    
    133400   323.78228     -218749.6       0             -218274.71      136.78896    
    133500   325.22051     -218748.6       0             -218271.59     -19.025086    
    133600   325.78029     -218742.1       0             -218264.28      260.94396    
    133700   325.49379     -218739.68      0             -218262.28      119.24603    
    133800   324.77666     -218742.63      0             -218266.27      86.832531    
    133900   324.35844     -218751.79      0             -218276.05     -180.09158    
    134000   320.11269     -218744.01      0             -218274.5      -240.88042    
    134100   325.08941     -218745.74      0             -218268.92      445.11015    
    134200   322.65187     -218737.4       0             -218264.16      0.43987299   
    134300   323.49715     -218737.51      0             -218263.04     -1052.4493    
    134400   323.70003     -218742.29      0             -218267.52     -896.81743    
    134500   325.17387     -218753         0             -218276.06     -1163.4563    
    134600   323.65698     -218749.2       0             -218274.49      17.912571    
    134700   322.77829     -218741.28      0             -218267.86      431.41239    
    134800   326.5146      -218743.98      0             -218265.08      970.15572    
    134900   324.77264     -218742.59      0             -218266.24      1100.4168    
    135000   326.45712     -218746.79      0             -218267.97      81.163486    
    135100   321.54376     -218741.03      0             -218269.42      143.59052    
    135200   323.93329     -218748.03      0             -218272.91     -644.26202    
    135300   320.81669     -218752.38      0             -218281.84     -566.48306    
    135400   319.49528     -218746.67      0             -218278.06     -484.96769    
    135500   323.09338     -218743.57      0             -218269.69     -870.54856    
    135600   325.53367     -218744.05      0             -218266.59      558.96496    
    135700   323.27072     -218740.28      0             -218266.13      354.95868    
    135800   322.7499      -218741.15      0             -218267.77      330.79785    
    135900   323.47717     -218748.38      0             -218273.94      962.17652    
    136000   319.49401     -218746.34      0             -218277.73      698.09422    
    136100   325.66146     -218748.76      0             -218271.11      481.58218    
    136200   325.37097     -218743.02      0             -218265.79      445.33816    
    136300   327.68749     -218745.94      0             -218265.32      698.54872    
    136400   327.09728     -218748.06      0             -218268.3       592.56484    
    136500   324.26779     -218749.72      0             -218274.11     -7.7852283    
    136600   323.20347     -218754.39      0             -218280.34      626.41767    
    136700   323.82543     -218754.32      0             -218279.36     -255.16349    
    136800   325.92361     -218746.28      0             -218268.25      275.10699    
    136900   328.24462     -218746.31      0             -218264.87      285.59895    
    137000   328.67851     -218747.5       0             -218265.42     -353.52275    
    137100   325.22659     -218747.59      0             -218270.57      152.92376    
    137200   321.55484     -218748.06      0             -218276.43      379.81799    
    137300   321.68143     -218747.47      0             -218275.66     -1143.3976    
    137400   325.38889     -218741.58      0             -218264.32      26.342436    
    137500   324.68842     -218738.37      0             -218262.15      710.67882    
    137600   325.77935     -218743.18      0             -218265.35     -511.83898    
    137700   321.61144     -218743.89      0             -218272.17     -1199.894     
    137800   321.35168     -218746.28      0             -218274.95     -28.547292    
    137900   323.66289     -218746.7       0             -218271.98     -1310.5183    
    138000   328.58985     -218751.49      0             -218269.54     -742.61343    
    138100   322.18728     -218741.47      0             -218268.92      155.58336    
    138200   328.51565     -218748.12      0             -218266.28     -214.40335    
    138300   324.69598     -218740.75      0             -218264.52     -475.8709     
    138400   324.43952     -218744.09      0             -218268.23     -541.84989    
    138500   324.5039      -218748.72      0             -218272.77      124.90762    
    138600   322.36907     -218748.12      0             -218275.3      -197.94257    
    138700   326.4776      -218749.84      0             -218270.99     -196.04541    
    138800   325.61261     -218740.8       0             -218263.22     -501.69936    
    138900   329.20859     -218743.93      0             -218261.08     -524.02336    
    139000   328.58463     -218747.14      0             -218265.2      -372.23798    
    139100   323.65284     -218742.12      0             -218267.42      163.68127    
    139200   323.1999      -218742.84      0             -218268.8      -224.56967    
    139300   321.14814     -218742.33      0             -218271.29      188.18305    
    139400   322.17785     -218745.62      0             -218273.08     -321.43187    
    139500   322.5148      -218747.85      0             -218274.81     -651.33426    
    139600   324.53191     -218746.56      0             -218270.57      161.84899    
    139700   327.6237      -218744.14      0             -218263.61     -46.745757    
    139800   326.51016     -218742.3       0             -218263.41      416.50627    
    139900   323.83329     -218744.48      0             -218269.51     -356.37614    
    140000   322.39994     -218747.88      0             -218275.02      479.22661    
    140100   322.76172     -218747.43      0             -218274.03     -414.83335    
    140200   323.95709     -218746.81      0             -218271.66      629.61398    
    140300   323.68313     -218742.5       0             -218267.75     -100.32689    
    140400   325.51428     -218741.37      0             -218263.94      98.954061    
    140500   326.7152      -218743         0             -218263.8      -161.78254    
    140600   325.10996     -218749.92      0             -218273.08     -207.96085    
    140700   321.29809     -218746.56      0             -218275.31     -407.03598    
    140800   325.97031     -218748.86      0             -218270.75     -1409.5278    
    140900   326.84212     -218745.14      0             -218265.76     -1828.9321    
    141000   323.42927     -218739.96      0             -218265.58     -771.98576    
    141100   326.94071     -218747.78      0             -218268.26      236.43153    
    141200   323.51858     -218745.89      0             -218271.38      633.93971    
    141300   321.00314     -218745.4       0             -218274.58      602.96491    
    141400   320.06161     -218748.06      0             -218278.62      330.15582    
    141500   323.31307     -218748.9       0             -218274.69      128.18908    
    141600   328.78993     -218748.76      0             -218266.52      763.83891    
    141700   324.77135     -218741.25      0             -218264.9       702.52496    
    141800   326.49548     -218745.84      0             -218266.96      738.65617    
    141900   324.57598     -218750.37      0             -218274.31      642.702      
    142000   321.2333      -218752.22      0             -218281.06      640.4912     
    142100   322.80434     -218749.8       0             -218276.34      83.086383    
    142200   322.70298     -218743.94      0             -218270.63     -124.633      
    142300   324.72234     -218743.88      0             -218267.6       344.55517    
    142400   326.623       -218745.06      0             -218266         985.42419    
    142500   322.25162     -218739.17      0             -218266.52      584.32561    
    142600   322.7308      -218744.25      0             -218270.89     -547.06454    
    142700   323.61001     -218750.98      0             -218276.34      38.083763    
    142800   325.26824     -218751.29      0             -218274.21      581.2016     
    142900   326.65484     -218743.41      0             -218264.3      -617.35898    
    143000   325.45668     -218740.08      0             -218262.73      356.90879    
    143100   327.61893     -218746.2       0             -218265.68     -233.88322    
    143200   325.11531     -218747.73      0             -218270.88      511.65603    
    143300   322.36355     -218745.03      0             -218272.22      211.9198     
    143400   323.44951     -218744.39      0             -218269.98     -578.42923    
    143500   328.8836      -218740.66      0             -218258.28     -1075.9429    
    143600   328.88185     -218742.71      0             -218260.33     -1227.7628    
    143700   325.67572     -218746.17      0             -218268.5       305.46329    
    143800   322.7843      -218745.7       0             -218272.26      174.30822    
    143900   321.98371     -218742.52      0             -218270.27     -440.94033    
    144000   327.82408     -218744.4       0             -218263.57      323.26356    
    144100   326.62153     -218740.99      0             -218261.93      910.61502    
    144200   323.58002     -218746.73      0             -218272.13      275.68043    
    144300   322.0618      -218749.82      0             -218277.45     -621.68733    
    144400   325.7152      -218750.35      0             -218272.62      19.790802    
    144500   325.71024     -218743.75      0             -218266.03      1.0997296    
    144600   326.92442     -218743.57      0             -218264.07      125.20658    
    144700   326.00617     -218745.43      0             -218267.27      19.415182    
    144800   322.30635     -218749.94      0             -218277.21     -559.84555    
    144900   324.77841     -218754.29      0             -218277.93      116.45756    
    145000   321.91823     -218745.94      0             -218273.78      103.50501    
    145100   326.37414     -218748.08      0             -218269.38     -10.10364     
    145200   324.69225     -218742.12      0             -218265.89     -965.4367     
    145300   327.64978     -218744.99      0             -218264.42     -36.749455    
    145400   322.55752     -218744.42      0             -218271.32      636.89826    
    145500   318.95199     -218746.41      0             -218278.6       852.44788    
    145600   321.56067     -218746.2       0             -218274.56      11.538259    
    145700   326.60114     -218746.93      0             -218267.9      -536.31954    
    145800   324.76767     -218742.88      0             -218266.54      529.10534    
    145900   328.6328      -218748.36      0             -218266.35     -442.04284    
    146000   319.62259     -218742.63      0             -218273.84      241.80365    
    146100   321.3533      -218751.21      0             -218279.87     -418.41749    
    146200   327.17494     -218754.9       0             -218275.03     -40.245852    
    146300   322.07473     -218743.36      0             -218270.97      322.84164    
    146400   324.55252     -218744.03      0             -218268.01     -602.28893    
    146500   326.37494     -218744.39      0             -218265.69     -916.45654    
    146600   325.11867     -218743.68      0             -218266.82     -79.618831    
    146700   323.99425     -218747.28      0             -218272.07     -690.2417     
    146800   325.25282     -218754.12      0             -218277.07      83.62479     
    146900   322.49689     -218748.2       0             -218275.19      749.01834    
    147000   327.57507     -218746.19      0             -218265.73      230.80057    
    147100   325.36496     -218741.56      0             -218264.35     -400.50851    
    147200   322.92154     -218740.61      0             -218266.97     -1317.8408    
    147300   324.9871      -218749.35      0             -218272.69     -183.44231    
    147400   323.32321     -218749.46      0             -218275.24     -167.00157    
    147500   327.43434     -218748.48      0             -218268.23     -878.41184    
    147600   329.67984     -218744.84      0             -218261.29      1562.5296    
    147700   325.29418     -218739.43      0             -218262.32      177.52894    
    147800   326.38815     -218748.6       0             -218269.88     -407.17044    
    147900   324.61131     -218748.35      0             -218272.23     -11.759949    
    148000   324.4199      -218747.17      0             -218271.34     -953.84907    
    148100   324.40148     -218740.74      0             -218264.93      452.91809    
    148200   326.5548      -218735.38      0             -218256.41     -267.23788    
    148300   328.82729     -218742.38      0             -218260.08     -59.10055     
    148400   326.85165     -218746.16      0             -218266.76      668.14093    
    148500   326.63424     -218748.89      0             -218269.81     -1542.1696    
    148600   325.0714      -218748.69      0             -218271.9      -45.187331    
    148700   324.92787     -218747.73      0             -218271.15      130.85701    
    148800   326.4074      -218742         0             -218263.26     -129.10764    
    148900   327.17004     -218739.4       0             -218259.54      113.4292     
    149000   326.96698     -218744.51      0             -218264.94     -337.21869    
    149100   326.05819     -218750.03      0             -218271.8      -1164.5849    
    149200   325.72347     -218749.42      0             -218271.68     -846.25561    
    149300   326.62661     -218748.96      0             -218269.89     -47.057977    
    149400   325.77236     -218745.68      0             -218267.87      484.8608     
    149500   329.04495     -218742.97      0             -218260.35     -334.14061    
    149600   328.68679     -218738.77      0             -218256.68     -0.75900626   
    149700   328.51592     -218747.03      0             -218265.19      432.39237    
    149800   325.59277     -218747.04      0             -218269.48      1144.2609    
    149900   324.21144     -218747.29      0             -218271.77      241.95462    
    150000   323.42378     -218745.42      0             -218271.05      29.510999    
    150100   327.59585     -218745.54      0             -218265.05      149.9906     
    150200   328.5449      -218742.21      0             -218260.32      1147.9146    
    150300   324.50845     -218741.19      0             -218265.23     -53.127641    
    150400   323.61187     -218748.23      0             -218273.58      847.52403    
    150500   326.48673     -218753.25      0             -218274.39     -213.28046    
    150600   324.46527     -218745.7       0             -218269.81     -339.8809     
    150700   325.51022     -218742.77      0             -218265.34     -65.434035    
    150800   327.06749     -218744.32      0             -218264.61      200.97491    
    150900   325.5852      -218745.22      0             -218267.68     -337.42031    
    151000   324.34965     -218751.51      0             -218275.78      339.7298     
    151100   321.27703     -218747.16      0             -218275.94     -367.19257    
    151200   323.93073     -218743.01      0             -218267.89     -563.22237    
    151300   326.43337     -218743.75      0             -218264.97      467.25006    
    151400   326.97352     -218746.04      0             -218266.46     -341.38879    
    151500   324.97477     -218746.68      0             -218270.04      856.02204    
    151600   323.7204      -218752.92      0             -218278.11     -144.10082    
    151700   318.88111     -218749.38      0             -218281.67      206.5601     
    151800   322.15737     -218746.08      0             -218273.57     -3.9682493    
    151900   322.60067     -218743.56      0             -218270.4      -390.20111    
    152000   325.2236      -218744.16      0             -218267.15     -419.86031    
    152100   325.92274     -218744.14      0             -218266.11     -382.58738    
    152200   324.32378     -218743.41      0             -218267.71     -354.35727    
    152300   323.66776     -218746.69      0             -218271.96      476.82928    
    152400   319.85602     -218745.51      0             -218276.38      1152.2492    
    152500   322.30622     -218746.37      0             -218273.64      1186.6168    
    152600   324.16403     -218739.6       0             -218264.14      400.04904    
    152700   326.74925     -218741.88      0             -218262.63      263.35178    
    152800   323.31302     -218741.55      0             -218267.34      347.83482    
    152900   323.47665     -218746.76      0             -218272.31     -506.42318    
    153000   321.82145     -218748.68      0             -218276.66     -1400.4532    
    153100   319.32802     -218751.75      0             -218283.38     -279.77872    
    153200   319.71062     -218746.92      0             -218278        -501.58406    
    153300   325.09492     -218747.07      0             -218270.25     -782.01137    
    153400   324.29221     -218742.81      0             -218267.17      91.697053    
    153500   329.48899     -218748.29      0             -218265.02      440.20488    
    153600   326.83216     -218747.72      0             -218268.35      78.647071    
    153700   322.92286     -218749.43      0             -218275.8       234.76358    
    153800   322.49102     -218746.91      0             -218273.9       639.39422    
    153900   327.26015     -218746.09      0             -218266.09      638.05954    
    154000   322.00684     -218736.31      0             -218264.02      196.50457    
    154100   325.02531     -218741.9       0             -218265.18     -619.88192    
    154200   324.17477     -218744.15      0             -218268.68     -100.14273    
    154300   324.708       -218749.51      0             -218273.25     -469.83378    
    154400   320.59213     -218746.25      0             -218276.03      413.32384    
    154500   322.85004     -218742.38      0             -218268.85      736.01321    
    154600   326.19191     -218741.01      0             -218262.58      569.73362    
    154700   326.89999     -218742.65      0             -218263.18      1988.6147    
    154800   321.99667     -218742.07      0             -218269.8       827.07926    
    154900   325.02406     -218750.2       0             -218273.49      949.04647    
    155000   324.04365     -218747.52      0             -218272.24     -245.30809    
    155100   324.97422     -218747.01      0             -218270.36     -16.630297    
    155200   324.81643     -218743.59      0             -218267.17     -242.84866    
    155300   329.06894     -218743.7       0             -218261.05      68.789076    
    155400   331.57927     -218739.24      0             -218252.91     -1276.9787    
    155500   328.94903     -218741.46      0             -218258.99     -362.73184    
    155600   321.85004     -218738.14      0             -218266.08     -455.94701    
    155700   322.75375     -218741.69      0             -218268.3      -11.704579    
    155800   328.99448     -218754.1       0             -218271.56      392.70592    
    155900   324.14978     -218749.13      0             -218273.69     -530.25547    
    156000   324.13325     -218745.96      0             -218270.55     -1230.7547    
    156100   327.5011      -218742.83      0             -218262.47     -62.366246    
    156200   326.79598     -218740.24      0             -218260.92     -58.621783    
    156300   323.9802      -218741.65      0             -218266.47      1188.5739    
    156400   320.43162     -218739.69      0             -218269.71      678.91137    
    156500   323.79497     -218744.18      0             -218269.27     -363.55111    
    156600   329.28613     -218750.05      0             -218267.08      333.64752    
    156700   324.12752     -218741.97      0             -218266.57     -405.3192     
    156800   326.53698     -218746.01      0             -218267.07      109.69682    
    156900   323.07417     -218743.07      0             -218269.21      157.84175    
    157000   324.8087      -218746.63      0             -218270.22     -1273.6858    
    157100   324.41268     -218745.25      0             -218269.42     -601.70983    
    157200   323.57517     -218741.17      0             -218266.58     -1156.4289    
    157300   328.46122     -218744.38      0             -218262.62     -53.952712    
    157400   326.81794     -218742.43      0             -218263.08     -867.84496    
    157500   325.15987     -218746.36      0             -218269.44      246.85032    
    157600   323.0691      -218749.5       0             -218275.65      696.72763    
    157700   321.84088     -218746.47      0             -218274.42      1086.1985    
    157800   324.79304     -218742.87      0             -218266.49      674.12983    
    157900   324.90092     -218740.12      0             -218263.58      626.55494    
    158000   324.64646     -218741.68      0             -218265.52      631.163      
    158100   323.80336     -218743.57      0             -218268.65     -445.03662    
    158200   321.67969     -218743.88      0             -218272.07      9.7479036    
    158300   320.5059      -218746.77      0             -218276.68     -758.42979    
    158400   321.98638     -218748.34      0             -218276.08     -505.65282    
    158500   326.49649     -218745.94      0             -218267.07     -298.04344    
    158600   324.23999     -218738.81      0             -218263.24     -981.47242    
    158700   327.49605     -218744.2       0             -218263.86     -206.16268    
    158800   324.52976     -218747.76      0             -218271.77     -506.01305    
    158900   320.85462     -218745.67      0             -218275.06      372.49204    
    159000   323.92517     -218747.71      0             -218272.6       814.21364    
    159100   326.36823     -218747.62      0             -218268.94      343.423      
    159200   327.85016     -218745.61      0             -218264.75     -594.92779    
    159300   324.55215     -218740.81      0             -218264.78      97.855902    
    159400   324.98861     -218748.03      0             -218271.37     -681.61013    
    159500   320.52662     -218747.58      0             -218277.46     -216.20551    
    159600   319.1703      -218742.76      0             -218274.62     -881.48203    
    159700   324.84767     -218743.23      0             -218266.77     -232.62493    
    159800   328.238       -218746.01      0             -218264.58     -74.897807    
    159900   324.0638      -218742.35      0             -218267.04     -169.98875    
    160000   321.84068     -218743.93      0             -218271.89      373.38479    
    160100   320.43379     -218750.92      0             -218280.94      227.85777    
    160200   324.04276     -218756.69      0             -218281.42      558.69133    
    160300   323.65625     -218748.51      0             -218273.79      660.49922    
    160400   324.20918     -218745.48      0             -218269.95      32.235226    
    160500   326.15384     -218745.36      0             -218266.99     -605.62619    
    160600   324.81757     -218740.4       0             -218263.99     -399.36043    
    160700   326.69793     -218745.09      0             -218265.92     -1461.8734    
    160800   325.99614     -218751.03      0             -218272.89     -569.07633    
    160900   321.51358     -218747.42      0             -218275.85     -831.18815    
    161000   323.98124     -218744.69      0             -218269.5      -816.71107    
    161100   323.78902     -218736.5       0             -218261.59     -504.48831    
    161200   327.50821     -218742.33      0             -218261.97     -243.64855    
    161300   326.23912     -218746.38      0             -218267.88      45.692839    
    161400   325.7339      -218749.54      0             -218271.78      236.85409    
    161500   325.60434     -218749.04      0             -218271.47     -810.1804     
    161600   322.19768     -218742.77      0             -218270.19      323.60419    
    161700   324.40509     -218744.59      0             -218268.78     -335.32909    
    161800   325.094       -218745.59      0             -218268.77      752.10404    
    161900   324.37889     -218743.69      0             -218267.92      743.3491     
    162000   327.33981     -218745.72      0             -218265.61      998.8776     
    162100   326.74879     -218743.18      0             -218263.93      182.99075    
    162200   326.39441     -218744.45      0             -218265.72     -673.55341    
    162300   325.00833     -218747.68      0             -218270.98     -767.4834     
    162400   324.02731     -218749.45      0             -218274.19     -306.38418    
    162500   325.02826     -218747.17      0             -218270.45     -487.50936    
    162600   327.19066     -218741.56      0             -218261.67     -841.599      
    162700   325.17974     -218738.43      0             -218261.48      71.138527    
    162800   328.78154     -218747.77      0             -218265.54      1341.8461    
    162900   324.17418     -218746.1       0             -218270.63      195.23373    
    163000   327.31979     -218750.85      0             -218270.76     -561.88937    
    163100   324.26613     -218745.84      0             -218270.24     -182.93559    
    163200   326.96935     -218748.7       0             -218269.13     -837.24728    
    163300   326.02565     -218741.29      0             -218263.1      -440.33111    
    163400   327.46747     -218737.35      0             -218257.05      274.65411    
    163500   326.29217     -218741.57      0             -218262.99     -175.27449    
    163600   326.72532     -218748.28      0             -218269.06     -397.07917    
    163700   323.10895     -218743.16      0             -218269.25     -125.63573    
    163800   326.95711     -218746.31      0             -218266.76     -1106.6817    
    163900   323.74208     -218740.27      0             -218265.43     -909.54498    
    164000   324.09507     -218738.19      0             -218262.83     -479.67851    
    164100   325.64438     -218742.15      0             -218264.53     -399.052      
    164200   323.6234      -218746.65      0             -218271.99      97.743399    
    164300   322.38376     -218748.6       0             -218275.76      1.5503397    
    164400   324.40548     -218748.48      0             -218272.67     -595.66172    
    164500   325.09076     -218739.96      0             -218263.15     -842.45722    
    164600   328.20575     -218744.86      0             -218263.48      207.4269     
    164700   328.25764     -218748.7       0             -218267.24      408.96986    
    164800   321.48876     -218743.6       0             -218272.07     -357.93763    
    164900   320.6342      -218745.49      0             -218275.21     -1963.6548    
    165000   323.16078     -218746.73      0             -218272.75     -901.23414    
    165100   327.07168     -218743.32      0             -218263.59      209.95929    
    165200   329.0144      -218744.94      0             -218262.37     -8.833975     
    165300   326.58023     -218745.28      0             -218266.28     -313.03165    
    165400   323.60884     -218748.8       0             -218274.15     -858.64295    
    165500   322.73605     -218747.87      0             -218274.51     -400.54234    
    165600   325.29188     -218747.72      0             -218270.61      231.82779    
    165700   325.87088     -218746.59      0             -218268.63     -850.27973    
    165800   326.64347     -218746.62      0             -218267.52     -77.317428    
    165900   324.354       -218744.6       0             -218268.86     -650.40743    
    166000   321.0497      -218747.7       0             -218276.81      50.111925    
    166100   320.09513     -218747.97      0             -218278.49     -863.5533     
    166200   325.85429     -218749.08      0             -218271.14     -920.53584    
    166300   324.8187      -218742.9       0             -218266.49      95.988048    
    166400   324.85741     -218742.56      0             -218266.09      144.71022    
    166500   322.5869      -218742.69      0             -218269.54      24.44122     
    166600   323.69207     -218753.23      0             -218278.47     -895.55842    
    166700   323.02913     -218754.23      0             -218280.44     -895.60239    
    166800   321.71206     -218745.85      0             -218273.99     -742.79934    
    166900   321.92964     -218742.97      0             -218270.79     -232.77981    
    167000   325.9036      -218745.33      0             -218267.32     -868.15254    
    167100   325.58118     -218741.49      0             -218263.96     -434.00693    
    167200   326.60902     -218742.71      0             -218263.66     -686.59348    
    167300   327.52797     -218751.58      0             -218271.19     -236.01874    
    167400   324.24085     -218752.67      0             -218277.11     -439.88758    
    167500   324.72107     -218750.62      0             -218274.34     -1033.6093    
    167600   324.2156      -218745.31      0             -218269.78     -1224.4535    
    167700   323.4995      -218743.08      0             -218268.6       1485.7076    
    167800   324.92133     -218744.98      0             -218268.41      17.852285    
    167900   321.92925     -218743.19      0             -218271.01     -58.955881    
    168000   322.75523     -218752.17      0             -218278.78      401.8134     
    168100   323.41486     -218752.81      0             -218278.45     -610.02087    
    168200   324.5489      -218745.99      0             -218269.96      855.48811    
    168300   326.31448     -218745.76      0             -218267.15      648.66057    
    168400   325.7561      -218744.85      0             -218267.06     -550.59854    
    168500   323.58932     -218743.42      0             -218268.81      34.724359    
    168600   324.17808     -218751.3       0             -218275.83     -496.32679    
    168700   324.01687     -218754.74      0             -218279.5       319.88398    
    168800   321.1875      -218743.24      0             -218272.15     -1126.7145    
    168900   324.78053     -218743.21      0             -218266.85     -1537.8245    
    169000   323.50535     -218741.83      0             -218267.34     -912.03692    
    169100   322.60793     -218743.05      0             -218269.87      201.32497    
    169200   322.72395     -218746.99      0             -218273.65      107.72352    
    169300   324.02503     -218753.58      0             -218278.33      289.9021     
    169400   321.37999     -218745.86      0             -218274.48     -443.16713    
    169500   324.36295     -218742.22      0             -218266.47     -310.02893    
    169600   327.03773     -218744.97      0             -218265.3      -2435.9097    
    169700   321.07849     -218738.85      0             -218267.92     -947.10223    
    169800   324.12074     -218748.44      0             -218273.05      105.75564    
    169900   323.41155     -218755.14      0             -218280.79      26.38344     
    170000   325.67818     -218755.31      0             -218277.63     -118.70226    
    170100   323.76412     -218746.37      0             -218271.5      -236.6718     
    170200   322.95485     -218742.66      0             -218268.98     -345.39494    
    170300   326.2267      -218746.01      0             -218267.53      464.01401    
    170400   322.83898     -218741.56      0             -218268.05      1040.5085    
    170500   325.05461     -218748.18      0             -218271.42     -388.44666    
    170600   323.89933     -218751.59      0             -218276.52     -1478.622     
    170700   323.13396     -218749.44      0             -218275.49      428.02509    
    170800   326.56567     -218745.21      0             -218266.24     -132.79099    
    170900   327.78696     -218744.27      0             -218263.5       309.17779    
    171000   327.44892     -218746.31      0             -218266.04      1066.5276    
    171100   322.40904     -218744.02      0             -218271.14     -498.26729    
    171200   322.3337      -218749.66      0             -218276.88     -891.69535    
    171300   321.95722     -218755.94      0             -218283.72     -835.10871    
    171400   321.1188      -218755.92      0             -218284.93     -441.85989    
    171500   326.11871     -218752.95      0             -218274.62     -771.87495    
    171600   324.24806     -218745.14      0             -218269.56      456.81146    
    171700   326.96187     -218744.81      0             -218265.25     -52.752413    
    171800   329.18624     -218747.02      0             -218264.2      -230.00305    
    171900   323.66449     -218746.31      0             -218271.59      636.46047    
    172000   321.13555     -218747.17      0             -218276.16      123.53786    
    172100   320.36274     -218743.13      0             -218273.24      458.03346    
    172200   322.67782     -218743.22      0             -218269.94      352.30693    
    172300   326.55655     -218747.41      0             -218268.44     -287.13203    
    172400   325.68824     -218745.22      0             -218267.53     -759.38335    
    172500   323.37587     -218745.2       0             -218270.9      -633.3943     
    172600   320.97654     -218751.02      0             -218280.23     -241.85566    
    172700   320.25275     -218751.02      0             -218281.31     -199.25279    
    172800   321.65337     -218745.4       0             -218273.63      162.90164    
    172900   324.57048     -218746.2       0             -218270.15      108.54366    
    173000   326.43041     -218746.23      0             -218267.44     -846.35136    
    173100   327.19508     -218745.74      0             -218265.84     -378.74756    
    173200   326.99705     -218747.85      0             -218268.24     -444.08271    
    173300   324.74508     -218752.32      0             -218276.01      111.32595    
    173400   325.01868     -218752.54      0             -218275.83     -223.47597    
    173500   325.15116     -218745.47      0             -218268.57      123.45341    
    173600   325.94569     -218742.25      0             -218264.18     -300.05774    
    173700   323.22598     -218739.37      0             -218265.29     -317.46758    
    173800   324.71173     -218744.78      0             -218268.52     -445.65476    
    173900   325.46504     -218749.78      0             -218272.42      191.25672    
    174000   322.54151     -218747.54      0             -218274.46     -575.67383    
    174100   320.97213     -218746.56      0             -218275.79     -866.16894    
    174200   321.55945     -218743.59      0             -218271.95     -60.177412    
    174300   323.97257     -218740.37      0             -218265.19     -361.02067    
    174400   325.00613     -218739.81      0             -218263.11      1001.1621    
    174500   324.16448     -218744.14      0             -218268.68     -532.59324    
    174600   321.89942     -218747.33      0             -218275.19      1243.9274    
    174700   321.61976     -218746.57      0             -218274.85      588.97122    
    174800   322.36911     -218743.71      0             -218270.88     -1059.2957    
    174900   327.18406     -218748.52      0             -218268.63      673.36681    
    175000   327.87354     -218748.54      0             -218267.64      353.32771    
    175100   322.04156     -218744.3       0             -218271.95     -529.371      
    175200   319.95862     -218747.61      0             -218278.33      387.51067    
    175300   326.48063     -218756.21      0             -218277.35     -1276.6307    
    175400   329.37603     -218751.94      0             -218268.84      383.69657    
    175500   325.93139     -218743.21      0             -218265.16      762.418      
    175600   324.82778     -218742.78      0             -218266.35     -507.42479    
    175700   322.27999     -218742.84      0             -218270.14      41.541991    
    175800   320.07761     -218747.43      0             -218277.97     -873.34851    
    175900   321.89501     -218755.61      0             -218283.49     -728.15826    
    176000   324.80364     -218750.89      0             -218274.49      490.09637    
    176100   324.97223     -218746.1       0             -218269.46      144.53106    
    176200   327.77297     -218748.78      0             -218268.03      384.39906    
    176300   325.41587     -218744.69      0             -218267.4       497.44674    
    176400   328.09614     -218749.7       0             -218268.47      58.92915     
    176500   325.60511     -218750.56      0             -218272.99     -82.910441    
    176600   320.02011     -218746.84      0             -218277.46     -36.374971    
    176700   324.25525     -218748.2       0             -218272.61     -215.92689    
    176800   327.11777     -218744.21      0             -218264.42      163.5809     
    176900   328.05568     -218746.29      0             -218265.12     -856.14261    
    177000   324.37736     -218745.03      0             -218269.26     -330.62432    
    177100   324.55428     -218750.05      0             -218274.02     -63.87892     
    177200   319.78564     -218751.81      0             -218282.78     -310.7667     
    177300   320.88897     -218750.77      0             -218280.12     -59.325314    
    177400   323.01058     -218744.35      0             -218270.59      112.02167    
    177500   324.90938     -218745.8       0             -218269.25      795.09956    
    177600   328.87456     -218751.25      0             -218268.88     -280.55901    
    177700   321.941       -218742.91      0             -218270.72      150.99522    
    177800   324.6289      -218747.8       0             -218271.67      90.7153      
    177900   327.23606     -218751.44      0             -218271.47      248.91755    
    178000   326.19849     -218746.54      0             -218268.1      -55.976611    
    178100   324.57162     -218738.98      0             -218262.93      151.64222    
    178200   329.88865     -218745.37      0             -218261.52     -1007.1885    
    178300   327.66086     -218750.58      0             -218270        -585.84081    
    178400   321.42826     -218746.82      0             -218275.38      95.894753    
    178500   324.06932     -218748.47      0             -218273.15     -909.66048    
    178600   323.95399     -218743.25      0             -218268.1      -1482.7332    
    178700   323.36969     -218739.25      0             -218264.95     -576.42005    
    178800   324.11633     -218741.17      0             -218265.79      544.98346    
    178900   323.15873     -218742.08      0             -218268.1      -267.15173    
    179000   325.24239     -218745.15      0             -218268.12     -432.37546    
    179100   328.55371     -218752.65      0             -218270.75     -438.52442    
    179200   321.88267     -218746.95      0             -218274.84     -578.87125    
    179300   322.53894     -218746.04      0             -218272.96     -1449.2805    
    179400   326.99099     -218743.39      0             -218263.79     -838.61825    
    179500   328.07948     -218743.39      0             -218262.19     -959.5845     
    179600   327.15348     -218745.41      0             -218265.57     -307.90709    
    179700   328.36404     -218751.18      0             -218269.56     -599.71176    
    179800   322.27654     -218745.11      0             -218272.43     -189.814      
    179900   323.00925     -218745.42      0             -218271.66     -555.54744    
    180000   324.00696     -218737.66      0             -218262.44     -841.99136    
    180100   327.51485     -218741.4       0             -218261.03      476.42267    
    180200   324.73495     -218744         0             -218267.71     -42.80663     
    180300   324.86521     -218749.92      0             -218273.43     -429.26263    
    180400   326.29043     -218752.49      0             -218273.91      826.39381    
    180500   327.04811     -218748.45      0             -218268.77      552.70125    
    180600   328.99722     -218742.17      0             -218259.63      380.48913    
    180700   331.07295     -218744.72      0             -218259.13     -624.08477    
    180800   323.77799     -218739.24      0             -218264.35     -1227.576     
    180900   327.23167     -218747.69      0             -218267.73     -781.91281    
    181000   323.94375     -218746.52      0             -218271.39     -536.76317    
    181100   323.46628     -218748.23      0             -218273.8      -496.85437    
    181200   324.8216      -218752.9       0             -218276.48      636.30853    
    181300   325.15432     -218750.34      0             -218273.43     -96.631876    
    181400   324.86264     -218742.54      0             -218266.06      187.6497     
    181500   327.44243     -218743.74      0             -218263.48      487.39848    
    181600   324.53125     -218742.98      0             -218266.99      676.68038    
    181700   324.05341     -218751.89      0             -218276.59      281.09837    
    181800   321.50523     -218747.99      0             -218276.44     -287.56208    
    181900   322.64941     -218745.05      0             -218271.82      362.21639    
    182000   324.15942     -218743.13      0             -218267.68     -906.40749    
    182100   326.6094      -218745.99      0             -218266.94     -885.4019     
    182200   326.37996     -218746.99      0             -218268.28     -338.78318    
    182300   323.1726      -218752.14      0             -218278.13      22.123316    
    182400   316.69107     -218747.39      0             -218282.9       22.893115    
    182500   322.5483      -218748.76      0             -218275.67     -728.77163    
    182600   321.96613     -218741.57      0             -218269.34     -403.34492    
    182700   328.26071     -218747.82      0             -218266.35      565.26686    
    182800   325.40333     -218744.14      0             -218266.87     -362.26326    
    182900   323.09574     -218747.69      0             -218273.8      -232.82017    
    183000   317.07298     -218744.31      0             -218279.26      99.248667    
    183100   322.09026     -218747.74      0             -218275.33     -682.86347    
    183200   324.44991     -218746.21      0             -218270.34     -400.01083    
    183300   325.11158     -218746         0             -218269.15     -626.29421    
    183400   327.23016     -218747.71      0             -218267.76     -438.44962    
    183500   325.81185     -218745.41      0             -218267.53     -346.39456    
    183600   324.10624     -218744.97      0             -218269.6       252.97709    
    183700   323.22788     -218748.04      0             -218273.96     -505.16473    
    183800   321.34184     -218747.04      0             -218275.72     -181.32525    
    183900   323.54472     -218745.01      0             -218270.46      397.64942    
    184000   328.55189     -218745.33      0             -218263.44     -43.550252    
    184100   324.54766     -218740.16      0             -218264.14     -26.785347    
    184200   325.58019     -218747.12      0             -218269.58     -61.271539    
    184300   324.09722     -218750.31      0             -218274.95     -926.73427    
    184400   322.49666     -218746.41      0             -218273.4      -130.98921    
    184500   326.6124      -218749.59      0             -218270.54     -597.22073    
    184600   324.55625     -218744.62      0             -218268.59     -1000.8153    
    184700   329.31043     -218749.01      0             -218266        -1288.3175    
    184800   329.27359     -218744.13      0             -218261.18     -1635.7226    
    184900   328.9807      -218745.1       0             -218262.58     -22.972855    
    185000   322.94456     -218745.25      0             -218271.58      435.99058    
    185100   322.83864     -218746.92      0             -218273.41      17.657471    
    185200   325.2214      -218748.28      0             -218271.27      187.93673    
    185300   327.9102      -218746.22      0             -218265.27     -283.60506    
    185400   329.94291     -218740.56      0             -218256.63     -995.05821    
    185500   329.89324     -218743.95      0             -218260.09     -407.90363    
    185600   326.15152     -218743.59      0             -218265.22     -862.99219    
    185700   324.37511     -218744.82      0             -218269.05     -81.601951    
    185800   321.47173     -218744.96      0             -218273.45     -819.55517    
    185900   326.22892     -218753.14      0             -218274.66     -665.71429    
    186000   326.08606     -218747.25      0             -218268.97     -554.54824    
    186100   324.71888     -218738.83      0             -218262.56     -538.66561    
    186200   322.43974     -218737.41      0             -218264.49      282.88465    
    186300   325.30713     -218747.96      0             -218270.82      245.55502    
    186400   323.06638     -218749.9       0             -218276.06     -498.77215    
    186500   322.16993     -218748.13      0             -218275.6      -639.57048    
    186600   323.9604      -218747.74      0             -218272.58     -1443.8679    
    186700   327.38359     -218747.64      0             -218267.46     -253.2291     
    186800   328.03373     -218745.3       0             -218264.17     -915.4012     
    186900   327.64526     -218748.19      0             -218267.63     -266.13695    
    187000   321.05669     -218747.88      0             -218276.98      1132.3451    
    187100   324.1659      -218752.37      0             -218276.91      583.20716    
    187200   320.60942     -218742.73      0             -218272.49      446.17997    
    187300   326.50007     -218748.17      0             -218269.29     -1092.0043    
    187400   326.1524      -218746.96      0             -218268.58      90.742477    
    187500   325.89599     -218748.18      0             -218270.18      719.47125    
    187600   323.92241     -218749.94      0             -218274.84     -740.51948    
    187700   321.18653     -218753.02      0             -218281.93      733.34161    
    187800   322.54887     -218750.86      0             -218277.77      109.08973    
    187900   326.43117     -218748.4       0             -218269.62     -1078.9071    
    188000   324.64352     -218743.57      0             -218267.41     -983.41189    
    188100   322.41186     -218741.38      0             -218268.49      352.88415    
    188200   326.64321     -218749.87      0             -218270.78      941.1493     
    188300   323.59912     -218750.45      0             -218275.83      794.03089    
    188400   322.82223     -218751.64      0             -218278.15     -423.23457    
    188500   325.46219     -218748.84      0             -218271.48     -199.48226    
    188600   324.95801     -218741.59      0             -218264.97      73.544805    
    188700   326.45771     -218744.41      0             -218265.59     -1021.964     
    188800   325.95094     -218747.63      0             -218269.55     -28.391881    
    188900   323.21733     -218749.57      0             -218275.5      -783.72302    
    189000   320.95586     -218745.89      0             -218275.14     -554.52124    
    189100   324.38972     -218748.21      0             -218272.42     -551.41853    
    189200   324.61251     -218745.91      0             -218269.8      -236.16481    
    189300   328.86657     -218747.4       0             -218265.04      180.67832    
    189400   323.88515     -218739.68      0             -218264.64     -637.41304    
    189500   323.97887     -218748.53      0             -218273.34     -811.82694    
    189600   322.93468     -218750.92      0             -218277.27      810.36784    
    189700   322.31879     -218747.7       0             -218274.95      247.63062    
    189800   325.74631     -218749         0             -218271.22      355.66161    
    189900   326.49949     -218747.85      0             -218268.97      121.86488    
    190000   324.21711     -218743.45      0             -218267.91      515.32553    
    190100   321.15499     -218739.56      0             -218268.51     -848.69672    
    190200   320.03843     -218747.36      0             -218277.96     -633.15612    
    190300   319.01126     -218749.36      0             -218281.46     -820.86205    
    190400   323.90085     -218749.31      0             -218274.24     -707.57007    
    190500   330.71221     -218753.5       0             -218268.44     -1147.7674    
    190600   326.20287     -218746.15      0             -218267.7      -362.18728    
    190700   325.70967     -218743.89      0             -218266.16     -928.32501    
    190800   325.03322     -218742.9       0             -218266.17     -949.07431    
    190900   326.78905     -218749.94      0             -218270.63     -762.35858    
    191000   321.92971     -218748.11      0             -218275.94     -404.87056    
    191100   322.85679     -218747.69      0             -218274.15     -453.69995    
    191200   325.02095     -218742.42      0             -218265.71     -257.98588    
    191300   325.61081     -218740.13      0             -218262.55      797.46577    
    191400   328.48401     -218746.82      0             -218265.02      631.24418    
    191500   327.14506     -218748.5       0             -218268.67      17.687083    
    191600   325.17293     -218748.11      0             -218271.17     -413.04109    
    191700   326.65315     -218749.58      0             -218270.47     -472.45784    
    191800   325.78683     -218747.47      0             -218269.63     -844.50175    
    191900   328.79621     -218752.32      0             -218270.07     -894.06817    
    192000   326.03952     -218748.26      0             -218270.06     -693.18136    
    192100   326.98269     -218748.98      0             -218269.39      668.822      
    192200   327.0334      -218749.98      0             -218270.32     -585.77575    
    192300   326.32167     -218751.36      0             -218272.74     -322.721      
    192400   322.75177     -218746.72      0             -218273.33      81.014833    
    192500   328.12727     -218751.19      0             -218269.92     -406.36053    
    192600   327.93205     -218744.21      0             -218263.23     -339.31053    
    192700   328.22877     -218743.17      0             -218261.75      338.73366    
    192800   324.12108     -218746.5       0             -218271.11     -609.74303    
    192900   320.59344     -218745.84      0             -218275.62      362.38243    
    193000   317.7795      -218739.67      0             -218273.58     -912.51906    
    193100   324.43556     -218743.39      0             -218267.53     -519.21434    
    193200   325.50689     -218742.99      0             -218265.56     -179.13052    
    193300   326.43083     -218746.59      0             -218267.81      258.84899    
    193400   323.16517     -218753.96      0             -218279.97      181.75293    
    193500   324.01457     -218754.42      0             -218279.19     -514.04498    
    193600   322.21265     -218744.51      0             -218271.92      5.4673645    
    193700   324.47846     -218742.83      0             -218266.92     -166.58804    
    193800   326.24514     -218745.22      0             -218266.71     -979.54327    
    193900   325.23966     -218748.15      0             -218271.11     -625.38439    
    194000   319.50633     -218747.94      0             -218279.32     -260.44912    
    194100   319.84728     -218746.66      0             -218277.54     -677.65999    
    194200   322.88253     -218747.06      0             -218273.48     -355.21477    
    194300   324.86951     -218746.75      0             -218270.26     -1303.4887    
    194400   322.7437      -218741.51      0             -218268.13     -523.91817    
    194500   324.2684      -218740.94      0             -218265.33     -1210.4876    
    194600   327.5592      -218742.34      0             -218261.9      -1071.1303    
    194700   327.45466     -218744.86      0             -218264.57     -124.521      
    194800   322.88305     -218746.14      0             -218272.56     -1704.9977    
    194900   323.01402     -218747.73      0             -218273.96     -1609.8465    
    195000   323.74747     -218745.04      0             -218270.2      -1978.5025    
    195100   326.94111     -218742.38      0             -218262.85     -1880.7799    
    195200   324.63244     -218736.05      0             -218259.91     -732.70359    
    195300   325.73892     -218747.25      0             -218269.48     -638.28915    
    195400   321.96394     -218747.27      0             -218275.04     -1266.3402    
    195500   324.58624     -218749.86      0             -218273.78     -126.69224    
    195600   324.01214     -218743.85      0             -218268.62     -1968.2512    
    195700   326.84412     -218742.78      0             -218263.39     -956.99688    
    195800   325.56161     -218742.88      0             -218265.37     -329.83599    
    195900   322.00206     -218748.02      0             -218275.73     -687.72414    
    196000   320.35294     -218747.62      0             -218277.76     -112.0991     
    196100   324.88676     -218750.7       0             -218274.18     -147.63394    
    196200   325.30548     -218745.84      0             -218268.71     -466.34389    
    196300   325.72314     -218744.26      0             -218266.52     -578.03236    
    196400   325.8052      -218745.73      0             -218267.87     -505.72707    
    196500   321.30291     -218749.89      0             -218278.63     -1652.083     
    196600   322.06175     -218753.8       0             -218281.42     -1487.604     
    196700   323.91267     -218750.06      0             -218274.97     -1212.9102    
    196800   323.06594     -218742.71      0             -218268.86     -919.1568     
    196900   325.05958     -218743.72      0             -218266.95      415.277      
    197000   326.25059     -218746.36      0             -218267.84     -1466.8717    
    197100   323.04142     -218750.6       0             -218276.79     -654.25234    
    197200   322.91055     -218754.13      0             -218280.51     -528.03353    
    197300   322.99676     -218749.59      0             -218275.84     -478.73878    
    197400   322.28729     -218744.25      0             -218271.55     -1027.1898    
    197500   324.8255      -218745.61      0             -218269.18     -690.464      
    197600   328.36451     -218748.71      0             -218267.09     -738.87386    
    197700   326.17598     -218749.72      0             -218271.31     -1104.6823    
    197800   319.4288      -218748.23      0             -218279.72     -274.6742     
    197900   320.37615     -218748.64      0             -218278.74     -558.31634    
    198000   326.71834     -218750.2       0             -218270.99     -236.11452    
    198100   327.00614     -218748.71      0             -218269.09     -305.30787    
    198200   322.20486     -218741.66      0             -218269.07     -569.85334    
    198300   329.20221     -218750.17      0             -218267.32     -143.61747    
    198400   326.13385     -218745.68      0             -218267.33     -589.54244    
    198500   325.28846     -218747.62      0             -218270.52     -1379.1084    
    198600   321.18147     -218746.62      0             -218275.54     -650.67472    
    198700   325.38935     -218754.49      0             -218277.24     -73.626276    
    198800   322.62192     -218743.3       0             -218270.1      -739.05089    
    198900   326.84122     -218744.09      0             -218264.71     -425.45833    
    199000   326.60839     -218746.77      0             -218267.73     -1229.5987    
    199100   324.69177     -218747.71      0             -218271.48      99.126963    
    199200   324.95943     -218753.16      0             -218276.53      441.70613    
    199300   320.50402     -218752.16      0             -218282.07     -351.11236    
    199400   320.48392     -218754.39      0             -218284.33     -560.20683    
    199500   322.6339      -218747.96      0             -218274.75     -774.23123    
    199600   324.17634     -218744.97      0             -218269.49     -1341.8759    
    199700   325.01586     -218743.17      0             -218266.46     -938.29555    
    199800   325.60077     -218744.9       0             -218267.34     -397.62388    
    199900   324.0922      -218749.38      0             -218274.03     -993.03496    
    200000   321.14002     -218751.01      0             -218279.99     -384.31184    
    200100   322.55363     -218750.24      0             -218277.15     -954.96786    
    200200   323.5372      -218745.99      0             -218271.46     -826.23467    
    200300   324.64631     -218745.36      0             -218269.2       261.76107    
    200400   325.5464      -218747.06      0             -218269.57     -193.829      
    200500   325.92049     -218750.63      0             -218272.6      -180.30429    
    200600   321.81065     -218751.7       0             -218279.69     -197.32005    
    200700   319.67589     -218750.13      0             -218281.26      414.27779    
    200800   323.27193     -218744.72      0             -218270.57     -720.05863    
    200900   325.99622     -218745.35      0             -218267.21      527.06902    
    201000   327.4502      -218747.87      0             -218267.6      -1139.185     
    201100   324.87946     -218749.09      0             -218272.59     -673.24735    
    201200   320.23292     -218748.72      0             -218279.03      77.139464    
    201300   325.2956      -218754.08      0             -218276.97     -1044.659     
    201400   322.60054     -218742.27      0             -218269.1      -664.87999    
    201500   324.29123     -218743.64      0             -218268        -1082.494     
    201600   325.67458     -218747.16      0             -218269.49     -374.31181    
    201700   324.02574     -218748.47      0             -218273.22     -1439.7577    
    201800   321.90525     -218748.45      0             -218276.31     -1120.2827    
    201900   319.35456     -218745.99      0             -218277.58     -568.50302    
    202000   324.44161     -218748.76      0             -218272.89     -494.95586    
    202100   327.79766     -218747.47      0             -218266.68     -178.48516    
    202200   328.30356     -218746.11      0             -218264.58     -185.82405    
    202300   323.67046     -218744.82      0             -218270.08     -1237.7344    
    202400   321.14148     -218750.29      0             -218279.27     -815.24349    
    202500   324.27693     -218752.76      0             -218277.14     -741.95454    
    202600   323.42681     -218746.11      0             -218271.73      615.75825    
    202700   324.88812     -218744.33      0             -218267.81     -420.0504     
    202800   326.36646     -218746.35      0             -218267.67     -504.21013    
    202900   323.34271     -218749.23      0             -218274.97     -720.59072    
    203000   322.63976     -218756         0             -218282.78     -458.26917    
    203100   322.05781     -218749.78      0             -218277.41     -628.64159    
    203200   324.79755     -218747.52      0             -218271.13     -909.16974    
    203300   326.18623     -218746.73      0             -218268.31     -366.03165    
    203400   323.3123      -218744.04      0             -218269.83      176.87528    
    203500   323.76271     -218752.57      0             -218277.7      -405.89333    
    203600   322.49513     -218753.92      0             -218280.91     -283.2554     
    203700   325.62687     -218752.86      0             -218275.25     -378.41249    
    203800   327.80977     -218752.5       0             -218271.69     -40.441071    
    203900   324.96047     -218747.21      0             -218270.59     -1983.0906    
    204000   323.77138     -218745.54      0             -218270.65     -1600.9674    
    204100   324.40036     -218748.79      0             -218272.98      71.195109    
    204200   324.69755     -218752.63      0             -218276.39      709.57963    
    204300   323.5213      -218752.03      0             -218277.52     -920.69134    
    204400   324.74223     -218747.27      0             -218270.97     -773.10271    
    204500   322.53793     -218738.64      0             -218265.57     -897.82763    
    204600   324.22796     -218741.85      0             -218266.3      -5.0597432    
    204700   322.86689     -218745.83      0             -218272.27      673.08149    
    204800   322.30356     -218752.49      0             -218279.76     -672.2924     
    204900   319.81968     -218746.77      0             -218277.69     -969.33871    
    205000   323.08255     -218746.23      0             -218272.36     -862.89258    
    205100   331.16531     -218752.52      0             -218266.79     -536.35727    
    205200   326.09632     -218745.47      0             -218267.18     -599.8348     
    205300   320.96725     -218745.3       0             -218274.53     -225.07878    
    205400   322.93609     -218754.78      0             -218281.13     -190.84568    
    205500   325.81908     -218755.22      0             -218277.34     -231.43624    
    205600   321.56725     -218744.07      0             -218272.42     -983.19901    
    205700   327.21307     -218748.32      0             -218268.39      67.952023    
    205800   327.88963     -218748.1       0             -218267.18      713.68134    
    205900   326.65846     -218750.26      0             -218271.14     -585.1881     
    206000   316.74869     -218747.81      0             -218283.23     -159.0305     
    206100   319.87622     -218750.89      0             -218281.73     -300.58151    
    206200   326.84424     -218753.64      0             -218274.25     -170.80469    
    206300   324.95313     -218745.76      0             -218269.15      313.92151    
    206400   327.79633     -218747.89      0             -218267.11      366.24178    
    206500   324.82756     -218746.14      0             -218269.71     -1421.9123    
    206600   322.93844     -218751.32      0             -218277.66     -2031.9663    
    206700   317.58062     -218747.55      0             -218281.75     -1510.1736    
    206800   322.65101     -218748.84      0             -218275.61     -927.50927    
    206900   323.5767      -218744.57      0             -218269.98      1063.3802    
    207000   325.48732     -218746.24      0             -218268.84      507.92281    
    207100   325.26191     -218747.41      0             -218270.34     -951.39459    
    207200   321.43925     -218746.7       0             -218275.24      56.549687    
    207300   320.84778     -218750.98      0             -218280.38     -479.95358    
    207400   320.72866     -218751.47      0             -218281.05     -991.52542    
    207500   323.53345     -218746.89      0             -218272.36     -433.8031     
    207600   328.41378     -218748.5       0             -218266.81     -1013.7916    
    207700   328.25189     -218748.62      0             -218267.17     -481.80564    
    207800   325.82884     -218750.83      0             -218272.93      279.50167    
    207900   321.37754     -218750.05      0             -218278.68     -287.41643    
    208000   324.59344     -218753.27      0             -218277.19     -778.82634    
    208100   325.38715     -218750.32      0             -218273.07     -414.53064    
    208200   325.33003     -218749.32      0             -218272.16     -535.06178    
    208300   322.65828     -218744.28      0             -218271.03     -348.03394    
    208400   326.56283     -218747.66      0             -218268.69     -62.250752    
    208500   325.97737     -218745.61      0             -218267.49     -68.913379    
    208600   327.46418     -218748.08      0             -218267.79      344.95268    
    208700   321.08677     -218744.2       0             -218273.25      513.73881    
    208800   321.60351     -218749.85      0             -218278.15      238.1657     
    208900   324.04793     -218752.62      0             -218277.34      18.105234    
    209000   327.46828     -218747.42      0             -218267.11      807.95936    
    209100   326.92211     -218744.26      0             -218264.76      250.55295    
    209200   322.19419     -218741.07      0             -218268.5       556.35946    
    209300   328.87129     -218754.22      0             -218271.86     -47.731777    
    209400   321.82167     -218750.51      0             -218278.49      289.74611    
    209500   321.47129     -218756.15      0             -218284.64     -367.37799    
    209600   320.22821     -218752.18      0             -218282.5      -1060.1553    
    209700   323.16966     -218745.66      0             -218271.67     -1669.1681    
    209800   325.69293     -218744.24      0             -218266.54     -1384.3575    
    209900   327.41733     -218746.77      0             -218266.54      422.9342     
    210000   323.51162     -218746.63      0             -218272.13      472.69411    
    210100   324.50697     -218753.47      0             -218277.51     -374.92595    
    210200   322.96758     -218751.15      0             -218277.45     -32.449576    
    210300   324.46028     -218742.9       0             -218267.01     -232.06456    
    210400   327.58448     -218743.96      0             -218263.49     -103.71677    
    210500   324.75461     -218744.35      0             -218268.03      625.8501     
    210600   325.14517     -218750.4       0             -218273.51      415.84502    
    210700   323.85927     -218749.94      0             -218274.93     -2136.8618    
    210800   326.91215     -218750.18      0             -218270.69     -522.87325    
    210900   329.5688      -218745.39      0             -218262.01     -714.53763    
    211000   325.65838     -218741.91      0             -218264.26     -1400.2086    
    211100   324.96076     -218745.44      0             -218268.82     -621.016      
    211200   326.11217     -218749.01      0             -218270.69     -812.69188    
    211300   327.81283     -218752.85      0             -218272.04     -827.70861    
    211400   324.46892     -218749.71      0             -218273.8      -826.98764    
    211500   323.41949     -218746.95      0             -218272.59     -591.12733    
    211600   327.2216      -218747.99      0             -218268.05     -236.45228    
    211700   326.59744     -218743.51      0             -218264.49      281.19312    
    211800   324.68042     -218743.89      0             -218267.68     -88.261733    
    211900   325.28148     -218753         0             -218275.91     -34.01919     
    212000   327.65391     -218756.48      0             -218275.9       1480.1053    
    212100   322.82801     -218747.36      0             -218273.86      1043.0991    
    212200   329.15566     -218748.57      0             -218265.79     -752.76446    
    212300   324.18064     -218738.73      0             -218263.25     -784.06842    
    212400   324.80032     -218741.98      0             -218265.59     -595.06731    
    212500   325.96595     -218747.58      0             -218269.48     -477.81212    
    212600   325.45735     -218751.04      0             -218273.69     -1256.3314    
    212700   321.74269     -218747.94      0             -218276.04     -389.91899    
    212800   324.10894     -218749.32      0             -218273.94     -52.105317    
    212900   324.26686     -218742         0             -218266.39      343.67957    
    213000   325.8439      -218741.38      0             -218263.46     -600.8644     
    213100   324.75491     -218745.89      0             -218269.57      165.85853    
    213200   322.48169     -218748.6       0             -218275.61      532.45541    
    213300   325.3149      -218752.22      0             -218275.07      1269.2749    
    213400   327.13651     -218752.42      0             -218272.6      -56.948257    
    213500   328.20198     -218752.04      0             -218270.66     -1178.8782    
    213600   325.34612     -218747.34      0             -218270.15      131.18431    
    213700   326.48934     -218749.82      0             -218270.96     -853.16962    
    213800   320.60482     -218743.8       0             -218273.56     -697.13327    
    213900   322.36895     -218748.79      0             -218275.96     -327.55605    
    214000   324.70504     -218750.51      0             -218274.26      121.84135    
    214100   328.27372     -218749.1       0             -218267.62      79.205763    
    214200   328.73741     -218746.59      0             -218264.42     -337.16768    
    214300   325.97571     -218748.17      0             -218270.05     -497.65068    
    214400   322.46153     -218751.72      0             -218278.76      89.374591    
    214500   322.57499     -218750.88      0             -218277.76     -907.49598    
    214600   324.85914     -218749.04      0             -218272.57     -60.5309      
    214700   327.12022     -218748         0             -218268.2      -123.08754    
    214800   325.91777     -218745.38      0             -218267.35     -429.58886    
    214900   322.2677      -218748.08      0             -218275.4       143.45425    
    215000   318.54045     -218749.83      0             -218282.62      833.35779    
    215100   321.30747     -218749         0             -218277.73     -458.26211    
    215200   321.66481     -218742.91      0             -218271.12     -320.86743    
    215300   327.17966     -218747.51      0             -218267.63     -233.83274    
    215400   323.17585     -218743.14      0             -218269.14     -1003.587     
    215500   324.0339      -218751.73      0             -218276.46     -644.39426    
    215600   319.85733     -218751.79      0             -218282.65     -673.36681    
    215700   324.6892      -218754.83      0             -218278.61     -2384.1362    
    215800   324.20795     -218747.81      0             -218272.29     -355.48765    
    215900   325.47394     -218747.67      0             -218270.29     -1550.192     
    216000   328.86225     -218753.37      0             -218271.02      406.51756    
    216100   322.17156     -218748.11      0             -218275.58      249.69014    
    216200   320.67019     -218753.39      0             -218283.06      400.16241    
    216300   319.74883     -218751.04      0             -218282.06      130.65815    
    216400   321.77691     -218743.93      0             -218271.98     -1002.8358    
    216500   325.53895     -218746.69      0             -218269.22     -1309.9212    
    216600   324.40487     -218745.78      0             -218269.97     -1152.0464    
    216700   323.2975      -218747.81      0             -218273.62     -679.59035    
    216800   319.95574     -218748.47      0             -218279.19     -301.75522    
    216900   321.11658     -218752.75      0             -218281.76      588.53699    
    217000   325.30438     -218752.42      0             -218275.29     -785.59253    
    217100   324.46705     -218744.23      0             -218268.33     -812.42518    
    217200   324.97695     -218743.92      0             -218267.28     -893.59462    
    217300   325.03308     -218748.47      0             -218271.74     -373.64349    
    217400   322.85307     -218751.99      0             -218278.46     -1671.5761    
    217500   324.44575     -218754.51      0             -218278.64     -1333.9341    
    217600   329.38664     -218752.16      0             -218269.05     -967.11936    
    217700   328.16191     -218746.57      0             -218265.25     -375.25652    
    217800   327.77189     -218749.12      0             -218268.37      130.65563    
    217900   326.71632     -218752.31      0             -218273.11     -199.43777    
    218000   322.60679     -218750.75      0             -218277.57     -1169.9769    
    218100   322.39898     -218748.71      0             -218275.84     -490.61032    
    218200   328.16911     -218746.68      0             -218265.35      216.60772    
    218300   330.61494     -218748.84      0             -218263.92     -432.61967    
    218400   325.63316     -218746.18      0             -218268.57      267.2607     
    218500   325.56257     -218751.4       0             -218273.89      581.02585    
    218600   324.50892     -218751.21      0             -218275.25     -616.90024    
    218700   326.394       -218752.61      0             -218273.88     -1241.8112    
    218800   326.93728     -218751.69      0             -218272.17     -1004.6747    
    218900   320.6752      -218741.81      0             -218271.47      380.037      
    219000   327.64689     -218751.18      0             -218270.62     -147.87435    
    219100   325.03861     -218748.78      0             -218272.04      238.91787    
    219200   323.1294      -218747.48      0             -218273.54     -189.19654    
    219300   321.54851     -218749.8       0             -218278.18     -1523.9822    
    219400   324.67357     -218756.86      0             -218280.65     -171.45028    
    219500   325.48741     -218753.02      0             -218275.62     -442.22875    
    219600   323.81096     -218742.92      0             -218267.99      18.211772    
    219700   329.02053     -218750.2       0             -218267.62     -300.31299    
    219800   325.28457     -218747.04      0             -218269.94     -980.47327    
    219900   322.13663     -218750.76      0             -218278.28     -110.82137    
    220000   320.63215     -218753.26      0             -218282.99      980.2355     
    220100   325.4094      -218755.25      0             -218277.97     -123.33886    
    220200   326.18825     -218751.8       0             -218273.38     -273.18742    
    220300   327.86721     -218750.72      0             -218269.83     -144.18668    
    220400   326.98785     -218747.36      0             -218267.76     -910.36235    
    220500   325.26363     -218746.83      0             -218269.76     -849.8916     
    220600   322.12588     -218750.42      0             -218277.96     -462.5923     
    220700   321.87647     -218751.72      0             -218279.62     -621.10657    
    220800   326.65964     -218752.18      0             -218273.07     -427.72662    
    220900   326.13011     -218745.9       0             -218267.56     -929.36289    
    221000   327.50454     -218749.07      0             -218268.72     -1071.5385    
    221100   321.98379     -218744.11      0             -218271.85     -660.3607     
    221200   322.75406     -218748.63      0             -218275.25     -378.38946    
    221300   323.01419     -218757.32      0             -218283.55      239.31934    
    221400   321.35686     -218756.95      0             -218285.61      54.2408      
    221500   328.0228      -218755.96      0             -218274.84     -930.5043     
    221600   325.65584     -218748.73      0             -218271.09     -496.11819    
    221700   323.63361     -218744         0             -218269.32     -389.39169    
    221800   323.49461     -218744.66      0             -218270.19     -60.322406    
    221900   324.52525     -218749.92      0             -218273.94     -360.6135     
    222000   324.2675      -218753.86      0             -218278.25     -10.939619    
    222100   325.41126     -218755.31      0             -218278.03     -637.08752    
    222200   325.24487     -218747.21      0             -218270.17     -668.83094    
    222300   325.96591     -218742.74      0             -218264.64     -292.98942    
    222400   330.23485     -218750.09      0             -218265.73     -251.85941    
    222500   323.46472     -218747.88      0             -218273.45     -844.2723     
    222600   322.56876     -218749.48      0             -218276.36      694.79729    
    222700   324.2296      -218749.98      0             -218274.43     -395.76347    
    222800   326.03868     -218749.62      0             -218271.41     -205.97551    
    222900   325.99075     -218745.44      0             -218267.3       347.84675    
    223000   330.97607     -218744.63      0             -218259.18      98.001778    
    223100   328.26857     -218742.76      0             -218261.29     -687.4317     
    223200   325.47326     -218749.03      0             -218271.65     -6.4772793    
    223300   323.36569     -218747.84      0             -218273.56     -1503.7377    
    223400   324.1727      -218749.13      0             -218273.66     -357.06321    
    223500   324.87867     -218747.44      0             -218270.93     -430.86719    
    223600   327.54191     -218745.62      0             -218265.21     -375.43769    
    223700   325.47038     -218739.83      0             -218262.45     -572.72162    
    223800   324.99683     -218746.63      0             -218269.95     -909.55768    
    223900   322.05022     -218749.04      0             -218276.68     -1450.1357    
    224000   325.77548     -218752.57      0             -218274.75     -1032.9861    
    224100   325.31076     -218746.84      0             -218269.7      -835.02962    
    224200   326.46051     -218744.56      0             -218265.73     -313.39845    
    224300   329.21865     -218748.9       0             -218266.03     -786.46094    
    224400   323.44021     -218748.72      0             -218274.32     -311.09085    
    224500   323.59088     -218753.64      0             -218279.03     -482.65246    
    224600   320.92138     -218746.12      0             -218275.42     -343.88822    
    224700   325.47051     -218746.08      0             -218268.71     -605.12986    
    224800   324.19722     -218743.02      0             -218267.52     -701.04202    
    224900   330.45502     -218753.85      0             -218269.17     -254.90313    
    225000   327.14688     -218751.42      0             -218271.58     -806.47211    
    225100   325.87689     -218750.28      0             -218272.31     -404.13394    
    225200   326.6042      -218751.65      0             -218272.61      604.60523    
    225300   325.21855     -218748.72      0             -218271.71     -20.325132    
    225400   322.9999      -218742.72      0             -218268.97      975.32389    
    225500   327.77856     -218741.76      0             -218261        -614.78813    
    225600   328.6593      -218742.21      0             -218260.16     -1558.4112    
    225700   328.68044     -218750.83      0             -218268.74     -815.86721    
    225800   322.41773     -218745.62      0             -218272.73      142.72524    
    225900   324.77476     -218749.12      0             -218272.77     -1181.3668    
    226000   328.85732     -218753.6       0             -218271.26     -541.15066    
    226100   321.90292     -218740.44      0             -218268.3      -84.323274    
    226200   327.8518      -218746.07      0             -218265.21     -219.12409    
    226300   325.80147     -218747.05      0             -218269.19     -262.4085     
    226400   324.33876     -218751.69      0             -218275.98      408.63646    
    226500   322.90112     -218749.65      0             -218276.05     -887.45369    
    226600   321.89543     -218743.63      0             -218271.51     -470.31469    
    226700   324.62246     -218740.39      0             -218264.26     -203.34437    
    226800   328.94844     -218746.48      0             -218264        -309.81646    
    226900   323.29246     -218751.66      0             -218277.48     -1379.3234    
    227000   324.99218     -218754.71      0             -218278.04     -664.58616    
    227100   324.24118     -218748.58      0             -218273.01     -706.90907    
    227200   328.35235     -218748.28      0             -218266.68     -616.48716    
    227300   326.45382     -218744.45      0             -218265.64     -187.53457    
    227400   322.54692     -218744.45      0             -218271.37     -857.59547    
    227500   323.61783     -218753.73      0             -218279.08      814.18286    
    227600   322.65075     -218752.34      0             -218279.11     -860.25316    
    227700   325.14517     -218751.67      0             -218274.77      696.19298    
    227800   327.80163     -218751.4       0             -218270.61     -762.60906    
    227900   327.68728     -218749.2       0             -218268.57      68.170009    
    228000   325.9154      -218748.35      0             -218270.33     -642.13201    
    228100   323.83167     -218753.91      0             -218278.94     -1290.9591    
    228200   321.1368      -218751.19      0             -218280.17     -1618.9432    
    228300   322.28343     -218745.93      0             -218273.23     -1604.9904    
    228400   324.26439     -218744.19      0             -218268.59     -90.845661    
    228500   326.60949     -218747.37      0             -218268.33     -1626.6226    
    228600   326.01245     -218749.38      0             -218271.21      143.2016     
    228700   322.39268     -218751.23      0             -218278.37      319.93164    
    228800   319.66464     -218753.91      0             -218285.05      342.275      
    228900   323.64588     -218754.49      0             -218279.8       857.4031     
    229000   326.74717     -218754         0             -218274.75      197.24989    
    229100   325.65147     -218748.95      0             -218271.31     -38.976717    
    229200   326.55419     -218746.7       0             -218267.74      873.57752    
    229300   325.44472     -218744.34      0             -218267         53.375477    
    229400   324.19623     -218749.7       0             -218274.2      -204.15989    
    229500   321.86415     -218750.94      0             -218278.85     -1213.573     
    229600   321.46863     -218748.26      0             -218276.76     -722.52844    
    229700   326.36468     -218751.58      0             -218272.9      -899.70166    
    229800   324.27723     -218746.52      0             -218270.9      -1168.4302    
    229900   325.02276     -218747.18      0             -218270.46     -2043.3139    
    230000   325.6855      -218748.84      0             -218271.15     -864.34585    
    230100   323.46419     -218749.33      0             -218274.9      -950.39781    
    230200   327.51501     -218758.85      0             -218278.48     -65.559137    
    230300   322.81066     -218750.23      0             -218276.76      839.75481    
    230400   324.98728     -218745.19      0             -218268.53      428.10185    
    230500   327.23045     -218745.61      0             -218265.66      370.57345    
    230600   325.65207     -218746.65      0             -218269.02      330.69725    
    230700   323.91574     -218748.9       0             -218273.8       962.322      
    230800   324.50004     -218752.15      0             -218276.2      -92.503225    
    230900   324.51886     -218750.57      0             -218274.59     -859.09365    
    231000   320.7704      -218743.71      0             -218273.23     -464.07571    
    231100   325.55946     -218747.8       0             -218270.29     -321.85181    
    231200   327.65334     -218746.35      0             -218265.78     -886.97548    
    231300   327.00756     -218743.3       0             -218263.67      40.844942    
    231400   324.2665      -218747.62      0             -218272.02     -1518.887     
    231500   323.04469     -218750.67      0             -218276.86     -723.19798    
    231600   323.13491     -218748.43      0             -218274.48     -2084.276     
    231700   323.66888     -218743.15      0             -218268.42     -351.45416    
    231800   328.78161     -218746.81      0             -218264.58      409.71079    
    231900   323.80233     -218743.75      0             -218268.82     -333.15954    
    232000   325.90922     -218758.45      0             -218280.44     -558.34373    
    232100   326.38735     -218756.03      0             -218277.32      120.51012    
    232200   324.37756     -218745.97      0             -218270.2      -73.260946    
    232300   324.81127     -218743.29      0             -218266.89      514.52276    
    232400   326.15492     -218747.02      0             -218268.65     -395.54932    
    232500   322.81338     -218750.44      0             -218276.97     -616.56003    
    232600   323.77608     -218753.8       0             -218278.91      685.74028    
    232700   329.26065     -218758.39      0             -218275.46     -155.78265    
    232800   321.63393     -218745.23      0             -218273.49     -931.00344    
    232900   326.00022     -218748.38      0             -218270.23     -788.84562    
    233000   327.64758     -218749.84      0             -218269.28     -713.51176    
    233100   327.45727     -218750.26      0             -218269.97      26.550443    
    233200   324.6538      -218748.66      0             -218272.49     -370.83842    
    233300   323.2839      -218750.71      0             -218276.54     -858.23412    
    233400   324.85729     -218752.22      0             -218275.75     -265.62019    
    233500   327.7474      -218749.64      0             -218268.93      56.188698    
    233600   326.84551     -218744.43      0             -218265.04      8.4469906    
    233700   324.37204     -218744.89      0             -218269.12      395.74762    
    233800   322.13092     -218747.83      0             -218275.36      50.964371    
    233900   323.19407     -218753.63      0             -218279.6      -1132.6877    
    234000   322.99087     -218762.66      0             -218288.92     -1770.4113    
    234100   319.11938     -218753.14      0             -218285.09     -989.68682    
    234200   324.04471     -218750.71      0             -218275.42      118.17691    
    234300   326.6063      -218748.74      0             -218269.7      -700.83252    
    234400   326.79391     -218745.64      0             -218266.33     -352.208      
    234500   326.10375     -218745.29      0             -218266.99     -274.99772    
    234600   324.53356     -218750.55      0             -218274.55     -30.930876    
    234700   321.78315     -218751.7       0             -218279.73     -780.5955     
    234800   324.07759     -218753.07      0             -218277.74      726.47211    
    234900   321.9353      -218745.33      0             -218273.15      657.91281    
    235000   324.32647     -218747.46      0             -218271.76     -233.18956    
    235100   324.52424     -218746.5       0             -218270.52      7.4545964    
    235200   323.9576      -218745.28      0             -218270.13     -843.69289    
    235300   326.77659     -218748.66      0             -218269.37     -932.5127     
    235400   324.06762     -218744.46      0             -218269.15      259.06773    
    235500   326.33619     -218751.18      0             -218272.54     -1111.9471    
    235600   320.81709     -218746.76      0             -218276.21     -1229.0782    
    235700   322.77992     -218746.87      0             -218273.44     -2075.0999    
    235800   326.8716      -218744.24      0             -218264.82     -984.65744    
    235900   327.61327     -218744.1       0             -218263.59     -728.57992    
    236000   321.24743     -218739.51      0             -218268.33     -408.12266    
    236100   323.52982     -218746.38      0             -218271.85      239.19429    
    236200   324.23552     -218748.16      0             -218272.6      -760.96944    
    236300   326.13586     -218749.98      0             -218271.63     -272.66258    
    236400   324.9015      -218747.13      0             -218270.59      468.73473    
    236500   327.9648      -218749.37      0             -218268.34     -803.62837    
    236600   321.48263     -218741.38      0             -218269.85     -535.33284    
    236700   327.33822     -218752.9       0             -218272.78     -84.382779    
    236800   319.02981     -218746.11      0             -218278.18     -482.82877    
    236900   322.02471     -218750.13      0             -218277.81     -1094.5296    
    237000   324.62543     -218743.72      0             -218267.58     -1461.7542    
    237100   325.32248     -218742.04      0             -218264.88     -1702.5493    
    237200   325.13605     -218744.25      0             -218267.36     -884.44193    
    237300   322.83037     -218747.89      0             -218274.39      145.33713    
    237400   323.86267     -218752.61      0             -218277.6       834.65284    
    237500   320.72053     -218746.46      0             -218276.06      231.97863    
    237600   322.72624     -218747.17      0             -218273.82      872.69241    
    237700   324.04546     -218746.86      0             -218271.58      253.88801    
    237800   324.80886     -218743.25      0             -218266.85      628.72619    
    237900   330.319       -218742.29      0             -218257.8      -70.384597    
    238000   326.22581     -218738.12      0             -218259.64      29.532316    
    238100   325.07125     -218744.32      0             -218267.53     -331.61198    
    238200   327.21311     -218750.6       0             -218270.67     -965.6798     
    238300   324.79244     -218751.23      0             -218274.85     -335.02223    
    238400   324.79612     -218750.87      0             -218274.49     -720.95826    
    238500   325.12878     -218746.56      0             -218269.69     -648.85896    
    238600   325.77701     -218740.61      0             -218262.79      220.99729    
    238700   327.6516      -218745.99      0             -218265.42     -188.821      
    238800   324.80636     -218748.13      0             -218271.73      84.502116    
    238900   324.74285     -218749.45      0             -218273.15      1313.4055    
    239000   320.69654     -218742.97      0             -218272.6       1268.6807    
    239100   323.74833     -218745.69      0             -218270.84      535.18636    
    239200   328.42071     -218746.99      0             -218265.29      614.12645    
    239300   329.02965     -218745.03      0             -218262.43     -392.40764    
    239400   326.63484     -218747.95      0             -218268.87     -438.35502    
    239500   326.05343     -218754.09      0             -218275.86     -31.328376    
    239600   323.41206     -218751.15      0             -218276.79     -640.16896    
    239700   323.80658     -218747.97      0             -218273.03     -604.42953    
    239800   323.43679     -218739.91      0             -218265.52     -471.44034    
    239900   327.08353     -218744.94      0             -218265.2       582.33573    
    240000   327.01866     -218747.52      0             -218267.87     -443.54848    
    240100   326.72658     -218749.67      0             -218270.45     -873.34135    
    240200   323.69888     -218749.87      0             -218275.1      -684.37207    
    240300   322.97652     -218752.09      0             -218278.37      4.1905502    
    240400   324.83407     -218751.13      0             -218274.69     -269.51031    
    240500   326.30669     -218744.83      0             -218266.23     -255.54852    
    240600   326.32471     -218743.5       0             -218264.88      614.58744    
    240700   325.9557      -218748.36      0             -218270.28     -274.97863    
    240800   324.17607     -218752.27      0             -218276.8      -238.00756    
    240900   317.89925     -218741.87      0             -218275.6       734.36081    
    241000   325.73881     -218748.94      0             -218271.17     -135.22938    
    241100   327.10026     -218748.77      0             -218269.01     -38.113082    
    241200   325.52969     -218746.22      0             -218268.76     -1374.5654    
    241300   325.22969     -218752.31      0             -218275.29     -1291.3692    
    241400   322.76609     -218754.39      0             -218280.98     -29.667533    
    241500   324.06635     -218751.89      0             -218276.57     -597.39858    
    241600   327.17721     -218749.81      0             -218269.93     -1067.108     
    241700   324.80976     -218744.37      0             -218267.96     -1282.3277    
    241800   324.04639     -218744.27      0             -218268.98     -1038.7626    
    241900   323.46539     -218751.12      0             -218276.69     -82.231985    
    242000   321.93801     -218754.03      0             -218281.84      280.28214    
    242100   327.59193     -218758.95      0             -218278.46     -438.0383     
    242200   325.54001     -218750.37      0             -218272.89     -853.08075    
    242300   325.38967     -218747.66      0             -218270.41      1061.266     
    242400   325.24164     -218747.44      0             -218270.41      645.70103    
    242500   326.77494     -218751.71      0             -218272.43      343.86891    
    242600   322.27359     -218752.6       0             -218279.92      226.01169    
    242700   321.52796     -218753.56      0             -218281.97     -294.63946    
    242800   324.35222     -218748.09      0             -218272.36     -1064.0749    
    242900   326.21175     -218746.58      0             -218268.12     -198.32765    
    243000   324.29632     -218744.89      0             -218269.24     -995.17779    
    243100   323.63321     -218748.7       0             -218274.02     -1532.0671    
    243200   323.70172     -218751.53      0             -218276.76     -772.56112    
    243300   324.39317     -218748.73      0             -218272.93      123.18805    
    243400   329.8216      -218748.96      0             -218265.21      30.717012    
    243500   329.08336     -218747.52      0             -218264.84      905.77932    
    243600   324.49526     -218748.76      0             -218272.81     -473.88427    
    243700   323.34411     -218749.87      0             -218275.61     -680.38246    
    243800   324.71584     -218749.26      0             -218273        -827.43905    
    243900   327.59673     -218748.96      0             -218268.47     -1102.1997    
    244000   327.29498     -218747.96      0             -218267.91     -1011.1347    
    244100   322.62499     -218749.61      0             -218276.41     -377.14883    
    244200   322.66324     -218754.44      0             -218281.19      108.58867    
    244300   322.36424     -218749.41      0             -218276.59     -487.69306    
    244400   325.25293     -218746.84      0             -218269.79     -81.119552    
    244500   328.85833     -218750.9       0             -218268.55     -29.933315    
    244600   325.33411     -218748.09      0             -218270.92     -1274.8834    
    244700   323.50955     -218749.18      0             -218274.68     -116.53305    
    244800   315.26387     -218746.86      0             -218284.46     -154.02339    
    244900   322.10625     -218756.17      0             -218283.73     -381.5981     
    245000   322.57339     -218751.16      0             -218278.04     -657.02171    
    245100   326.57023     -218751.93      0             -218272.94     -386.48509    
    245200   324.11897     -218745.29      0             -218269.9      -1090.9763    
    245300   325.62268     -218744.02      0             -218266.43     -1423.7765    
    245400   328.46724     -218746.65      0             -218264.88     -620.6773     
    245500   324.61839     -218747.9       0             -218271.77     -685.46434    
    245600   322.61488     -218750.21      0             -218277.03     -1235.1774    
    245700   322.697       -218749.94      0             -218276.63     -436.85576    
    245800   327.19498     -218748.57      0             -218268.67     -584.04192    
    245900   327.97223     -218746.18      0             -218265.14     -1239.6496    
    246000   327.13473     -218747.19      0             -218267.37     -181.72356    
    246100   324.48811     -218747.05      0             -218271.12     -847.08674    
    246200   323.73998     -218747.16      0             -218272.33     -1153.857     
    246300   326.7512      -218752.81      0             -218273.56     -711.02917    
    246400   322.85073     -218748.73      0             -218275.2      -319.30281    
    246500   324.27667     -218751.52      0             -218275.89     -177.74293    
    246600   322.94438     -218745.84      0             -218272.17     -324.13799    
    246700   325.92384     -218745.62      0             -218267.58     -908.64421    
    246800   325.80834     -218742.35      0             -218264.48      224.05159    
    246900   323.37817     -218740.56      0             -218266.26     -378.2005     
    247000   324.03273     -218750.15      0             -218274.89     -895.63032    
    247100   321.24644     -218750.07      0             -218278.89     -1154.6951    
    247200   322.7254      -218748.55      0             -218275.2      -615.86169    
    247300   325.20934     -218745.97      0             -218268.98     -1230.159     
    247400   328.4844      -218750.15      0             -218268.36      229.95072    
    247500   323.90412     -218745.08      0             -218270.01     -1396.1691    
    247600   329.05257     -218754.21      0             -218271.58     -1358.6302    
    247700   321.94186     -218750.1       0             -218277.9      -680.39017    
    247800   319.23035     -218753.02      0             -218284.8      -102.30946    
    247900   323.18606     -218753.74      0             -218279.72      594.2726     
    248000   324.49855     -218751.17      0             -218275.22     -102.90379    
    248100   325.45951     -218748.72      0             -218271.37     -1177.4779    
    248200   326.91162     -218747.23      0             -218267.75     -1061.2729    
    248300   326.59646     -218745.8       0             -218266.77     -321.69617    
    248400   324.34312     -218746.95      0             -218271.23     -822.29528    
    248500   323.59819     -218752.9       0             -218278.28     -1394.3846    
    248600   323.98342     -218753.21      0             -218278.02     -79.941585    
    248700   326.07768     -218749.43      0             -218271.17      350.1088     
    248800   326.41359     -218744.2       0             -218265.44     -570.51903    
    248900   327.69912     -218747.55      0             -218266.91     -158.60466    
    249000   326.88596     -218750.42      0             -218270.98     -257.11425    
    249100   326.1805      -218751.97      0             -218273.56     -83.035379    
    249200   324.05431     -218748.96      0             -218273.66      379.56839    
    249300   327.05305     -218746.08      0             -218266.38     -285.3782     
    249400   331.01948     -218745.17      0             -218259.66     -1139.4906    
    249500   324.50908     -218740.16      0             -218264.2       316.35487    
    249600   326.1567      -218747.52      0             -218269.14     -1680.1215    
    249700   323.56001     -218747.98      0             -218273.41     -650.90736    
    249800   327.68581     -218754.81      0             -218274.19     -634.80038    
    249900   323.83332     -218750.09      0             -218275.11     -1228.5536    
    250000   322.15014     -218745.33      0             -218272.82     -271.48917    
    250100   326.47994     -218746.66      0             -218267.81      769.80581    
    250200   326.69481     -218745.87      0             -218266.7       478.19414    
    250300   324.01086     -218745.92      0             -218270.68     -313.91888    
    250400   323.47184     -218752.62      0             -218278.18     -456.84479    
    250500   324.59889     -218755.42      0             -218279.32     -400.99547    
    250600   321.67322     -218745.57      0             -218273.77     -529.16528    
    250700   328.13757     -218752.12      0             -218270.83     -613.98304    
    250800   320.41102     -218741.95      0             -218272        -1163.2866    
    250900   325.68249     -218748.38      0             -218270.7      -2009.9333    
    251000   323.71367     -218747.53      0             -218272.74      247.95294    
    251100   320.56191     -218748.07      0             -218277.9      -1292.025     
    251200   325.47937     -218756.83      0             -218279.44     -120.08021    
    251300   327.55849     -218753.2       0             -218272.77     -1505.8697    
    251400   327.76001     -218747.08      0             -218266.35     -97.663004    
    251500   329.09095     -218750.11      0             -218267.43      128.28972    
    251600   322.87039     -218745.12      0             -218271.56     -14.565987    
    251700   323.16953     -218750.15      0             -218276.15      241.63634    
    251800   320.05439     -218755.21      0             -218285.79     -1380.3285    
    251900   319.26331     -218754.21      0             -218285.95     -1346.8786    
    252000   322.99731     -218751.45      0             -218277.71     -104.89663    
    252100   324.02893     -218749.54      0             -218274.28     -1196.1994    
    252200   328.61556     -218751.45      0             -218269.46     -244.58501    
    252300   327.95682     -218747.07      0             -218266.05      138.81238    
    252400   329.32924     -218752.28      0             -218269.25     -1049.7868    
    252500   325.14414     -218754.51      0             -218277.62     -914.87486    
    252600   322.96223     -218752.28      0             -218278.59     -5.4325246    
    252700   326.70648     -218754.33      0             -218275.15     -313.64736    
    252800   328.00096     -218753.12      0             -218272.04     -1159.4043    
    252900   325.70151     -218749.27      0             -218271.56      192.65577    
    253000   319.96289     -218740.43      0             -218271.14      714.04745    
    253100   326.42529     -218745.78      0             -218267        -382.06906    
    253200   326.60532     -218740.78      0             -218261.75      379.94761    
    253300   324.52727     -218740.25      0             -218264.26      44.095595    
    253400   326.80858     -218752.1       0             -218272.76     -373.45581    
    253500   320.59865     -218745.52      0             -218275.3      -221.30908    
    253600   325.01161     -218749.63      0             -218272.93     -642.74614    
    253700   326.68081     -218747.78      0             -218268.63     -1316.9326    
    253800   327.43167     -218740.48      0             -218260.23     -1187.7945    
    253900   325.58247     -218736.34      0             -218258.8      -1577.8107    
    254000   320.44859     -218740.74      0             -218270.73     -924.62317    
    254100   321.85341     -218745.24      0             -218273.18     -643.42596    
    254200   325.32832     -218752.45      0             -218275.28     -719.85439    
    254300   324.53878     -218749.71      0             -218273.7      -503.86886    
    254400   329.90089     -218752.41      0             -218268.54      224.67386    
    254500   328.8323      -218747.14      0             -218264.83     -367.41546    
    254600   326.92849     -218751.07      0             -218271.56     -1292.1729    
    254700   323.78306     -218753.42      0             -218278.52     -445.71144    
    254800   322.27471     -218750.03      0             -218277.34     -1081.0258    
    254900   325.85217     -218750.02      0             -218272.09     -2117.7215    
    255000   327.42889     -218749.98      0             -218269.73     -493.17081    
    255100   324.52785     -218746.14      0             -218270.15     -674.09967    
    255200   329.01863     -218754.07      0             -218271.5      -1300.4547    
    255300   321.36455     -218745.71      0             -218274.36     -88.08986     
    255400   324.74414     -218759.97      0             -218283.66      818.72197    
    255500   320.10204     -218754.3       0             -218284.8       184.69963    
    255600   323.93602     -218751.13      0             -218276.01     -60.024485    
    255700   321.82656     -218743.17      0             -218271.15     -941.29845    
    255800   323.09307     -218743.94      0             -218270.05     -1012.014     
    255900   322.58074     -218742.83      0             -218269.7       136.69533    
    256000   325.97411     -218751.62      0             -218273.51     -334.56129    
    256100   322.9224      -218752.81      0             -218279.17     -1381.3194    
    256200   319.68642     -218749.13      0             -218280.24     -1930.0207    
    256300   323.36712     -218745.62      0             -218271.33      355.41529    
    256400   327.86314     -218747.54      0             -218266.66     -238.4515     
    256500   327.60297     -218748.03      0             -218267.53     -171.78899    
    256600   326.11617     -218750.53      0             -218272.21     -298.68687    
    256700   322.32675     -218751.2       0             -218278.44      419.03102    
    256800   323.9504      -218758.43      0             -218283.29      343.52253    
    256900   318.49853     -218755.19      0             -218288.05      42.807807    
    257000   323.55304     -218754.42      0             -218279.86     -294.34066    
    257100   328.02399     -218753.62      0             -218272.5      -641.6742     
    257200   325.33303     -218746.15      0             -218268.98      712.94413    
    257300   323.70391     -218741.78      0             -218267        -870.79069    
    257400   323.23978     -218746.1       0             -218272        -338.30059    
    257500   324.43073     -218754.27      0             -218278.42     -778.31139    
    257600   323.50985     -218752.29      0             -218277.79     -1163.4805    
    257700   327.04166     -218750.8       0             -218271.12     -249.31805    
    257800   325.94561     -218745.74      0             -218267.67     -849.918      
    257900   325.27659     -218746.29      0             -218269.2      -626.98024    
    258000   326.85615     -218752.28      0             -218272.88      203.11477    
    258100   322.11779     -218749.63      0             -218277.17     -63.506619    
    258200   317.19515     -218746.15      0             -218280.92      72.866409    
    258300   321.9506      -218751.1       0             -218278.89      228.27857    
    258400   323.72904     -218744.41      0             -218269.59      624.94499    
    258500   328.21499     -218748.6       0             -218267.21      308.94768    
    258600   325.01125     -218746.58      0             -218269.88     -76.817035    
    258700   324.84548     -218753.82      0             -218277.36     -666.31693    
    258800   321.4452      -218750.96      0             -218279.49     -890.47235    
    258900   321.41143     -218747.72      0             -218276.3      -872.29602    
    259000   324.94852     -218749.99      0             -218273.38     -782.02887    
    259100   326.40575     -218750.75      0             -218272         22.275685    
    259200   326.3922      -218747.37      0             -218268.65     -973.50592    
    259300   327.60526     -218742.84      0             -218262.33     -231.86523    
    259400   330.49754     -218744.98      0             -218260.23     -16.309096    
    259500   321.73696     -218743.1       0             -218271.2      -793.64295    
    259600   325.71381     -218752.28      0             -218274.55     -1092.7341    
    259700   321.59987     -218746.38      0             -218274.68     -2070.6614    
    259800   320.96232     -218742.42      0             -218271.66     -1616.8953    
    259900   328.15747     -218746.05      0             -218264.74     -205.88131    
    260000   328.95885     -218746.55      0             -218264.07     -1143.7007    
    260100   324.20835     -218750.28      0             -218274.76     -383.75722    
    260200   322.92626     -218751.16      0             -218277.52     -21.138989    
    260300   324.5654      -218749.58      0             -218273.54     -736.57955    
    260400   327.78176     -218748.94      0             -218268.17     -1549.4678    
    260500   327.67816     -218748.22      0             -218267.61      502.43099    
    260600   325.86697     -218752.71      0             -218274.76     -707.70474    
    260700   324.86417     -218757.86      0             -218281.38     -209.2778     
    260800   323.23627     -218752.02      0             -218277.93      126.7367     
    260900   326.49128     -218749.47      0             -218270.6      -895.96541    
    261000   326.06098     -218747         0             -218268.76      861.30846    
    261100   325.62745     -218747.46      0             -218269.85     -760.44516    
    261200   322.96535     -218748.23      0             -218274.53     -585.48141    
    261300   321.88145     -218754.95      0             -218282.85     -1623.668     
    261400   320.75066     -218753.88      0             -218283.43     -13.987866    
    261500   326.22422     -218754.34      0             -218275.86     -242.3295     
    261600   325.14806     -218750.21      0             -218273.31      119.39245    
    261700   324.94649     -218747.8       0             -218271.2      -250.39747    
    261800   326.01127     -218747.01      0             -218268.85     -2051.2618    
    261900   328.23738     -218752.03      0             -218270.6      -740.04854    
    262000   323.53424     -218750.79      0             -218276.26     -289.87227    
    262100   324.95603     -218756.63      0             -218280.01     -123.64451    
    262200   324.14842     -218751.95      0             -218276.52     -66.866041    
    262300   328.77371     -218750.07      0             -218267.85      393.72629    
    262400   329.95414     -218749.82      0             -218265.87     -566.24705    
    262500   325.35258     -218747.04      0             -218269.84     -1166.9277    
    262600   324.26424     -218750.7       0             -218275.1      -362.05929    
    262700   322.61644     -218756.27      0             -218283.08     -409.54284    
    262800   318.88356     -218757.36      0             -218289.65      77.466304    
    262900   319.70944     -218752.64      0             -218283.72     -247.81608    
    263000   321.48839     -218748.92      0             -218277.39      292.88867    
    263100   323.886       -218746.85      0             -218271.8       890.68211    
    263200   325.99457     -218745.11      0             -218266.97     -184.99138    
    263300   327.06005     -218745.43      0             -218265.72     -1423.1495    
    263400   322.74406     -218748.14      0             -218274.77     -842.65138    
    263500   324.22242     -218754.07      0             -218278.53      459.58597    
    263600   323.80572     -218750.83      0             -218275.9      -903.74909    
    263700   326.40751     -218749.17      0             -218270.42     -1480.8463    
    263800   326.85016     -218748.21      0             -218268.81     -1867.2802    
    263900   326.04564     -218748.51      0             -218270.29     -594.72156    
    264000   324.61328     -218748.4       0             -218272.28     -748.08837    
    264100   323.18726     -218748.52      0             -218274.5       595.46468    
    264200   325.14338     -218752.08      0             -218275.19     -224.37168    
    264300   325.2903      -218751.26      0             -218274.15     -348.36527    
    264400   323.21605     -218744.26      0             -218270.2      -1158.1978    
    264500   328.95717     -218748.27      0             -218265.79      720.38758    
    264600   325.83654     -218745.68      0             -218267.77      983.84334    
    264700   321.84574     -218747.7       0             -218275.64     -589.59987    
    264800   320.37295     -218747.1       0             -218277.2      -888.9294     
    264900   322.36833     -218746.81      0             -218273.98     -1136.5738    
    265000   325.57944     -218748.5       0             -218270.97     -1550.4513    
    265100   326.96788     -218750.57      0             -218271.01     -685.9456     
    265200   323.22836     -218745.61      0             -218271.53     -296.99934    
    265300   324.7396      -218747.59      0             -218271.29     -338.82026    
    265400   324.50098     -218747.12      0             -218271.17      219.04708    
    265500   326.46512     -218750.89      0             -218272.06      880.80128    
    265600   325.85893     -218751.54      0             -218273.59      752.22321    
    265700   323.39487     -218749.13      0             -218274.81     -1318.71      
    265800   322.70636     -218747.03      0             -218273.71     -1460.6166    
    265900   323.71653     -218744.07      0             -218269.27     -1071.0235    
    266000   328.79842     -218746.53      0             -218264.28     -213.55101    
    266100   325.93729     -218742.64      0             -218264.59      616.20706    
    266200   323.69205     -218749.18      0             -218274.42      327.86846    
    266300   323.75225     -218751.72      0             -218276.87     -1137.6965    
    266400   321.38045     -218747.01      0             -218275.63     -575.99589    
    266500   327.29836     -218747.96      0             -218267.9      -1025.9168    
    266600   328.28513     -218747.45      0             -218265.95     -1297.8464    
    266700   323.56548     -218742.92      0             -218268.34     -711.68875    
    266800   323.8457      -218746.38      0             -218271.39      334.37901    
    266900   326.24886     -218751.97      0             -218273.46      175.95567    
    267000   325.0537      -218752.03      0             -218275.27     -732.9109     
    267100   322.96374     -218752.63      0             -218278.94     -410.32585    
    267200   325.05872     -218754.13      0             -218277.36     -688.12486    
    267300   326.26883     -218748.7       0             -218270.15     -339.82622    
    267400   326.20256     -218745.41      0             -218266.97     -633.84446    
    267500   324.53779     -218745.81      0             -218269.81     -486.84383    
    267600   320.58784     -218749.07      0             -218278.86     -356.91431    
    267700   322.47318     -218753.48      0             -218280.5      -449.85267    
    267800   327.26709     -218757.07      0             -218277.06     -335.58806    
    267900   324.60557     -218748.89      0             -218272.79      642.86237    
    268000   328.57066     -218751.88      0             -218269.97      406.46206    
    268100   327.7668      -218749.59      0             -218268.85     -1438.8203    
    268200   324.38915     -218746.9       0             -218271.11     -1292.015     
    268300   320.75081     -218747.67      0             -218277.22     -318.97284    
    268400   323.3873      -218754.54      0             -218280.23     -23.451812    
    268500   319.1541      -218744.39      0             -218276.28      347.48196    
    268600   326.23489     -218745.87      0             -218267.38     -463.64806    
    268700   323.78715     -218742.75      0             -218267.85     -324.47339    
    268800   324.22664     -218747.49      0             -218271.94      929.69818    
    268900   321.68069     -218748.04      0             -218276.23     -73.520945    
    269000   323.34526     -218752.87      0             -218278.61     -1349.0871    
    269100   324.57877     -218754.72      0             -218278.66     -1107.2763    
    269200   323.57842     -218746.68      0             -218272.08      287.19707    
    269300   327.11489     -218745.63      0             -218265.85      236.32408    
    269400   326.72507     -218745.63      0             -218266.42     -987.39582    
    269500   323.60628     -218747.86      0             -218273.22     -227.67525    
    269600   325.02956     -218755.39      0             -218278.66     -595.38423    
    269700   324.32705     -218752.59      0             -218276.89     -320.59919    
    269800   326.30219     -218751.81      0             -218273.22      140.55896    
    269900   327.11425     -218750.85      0             -218271.07      209.08518    
    270000   326.30904     -218748.74      0             -218270.14      55.313564    
    270100   325.02602     -218740.48      0             -218263.76     -185.71104    
    270200   334.38551     -218749.07      0             -218258.62      192.18047    
    270300   329.29878     -218749.35      0             -218266.36      528.50081    
    270400   324.75439     -218747.09      0             -218270.77     -99.302602    
    270500   325.35588     -218750.43      0             -218273.23     -1056.9596    
    270600   324.22943     -218749.85      0             -218274.3      -1341.4066    
    270700   322.43314     -218745.59      0             -218272.67     -1927.6661    
    270800   327.65352     -218747.14      0             -218266.57     -568.03969    
    270900   325.25861     -218740.74      0             -218263.68     -99.009934    
    271000   326.00978     -218747.52      0             -218269.36     -488.44183    
    271100   320.80454     -218747.39      0             -218276.86     -621.30273    
    271200   324.50262     -218750.83      0             -218274.88     -828.67898    
    271300   326.433       -218750.33      0             -218271.55     -534.6429     
    271400   321.97738     -218739.31      0             -218267.06      181.22199    
    271500   324.73291     -218739.4       0             -218263.11      46.62299     
    271600   328.19362     -218746.09      0             -218264.72     -192.04778    
    271700   325.13605     -218750.04      0             -218273.15     -534.87709    
    271800   320.80624     -218746.92      0             -218276.39     -2258.2568    
    271900   323.1057      -218749.51      0             -218275.61     -1482.0833    
    272000   324.52981     -218743.99      0             -218267.99     -1248.1226    
    272100   328.44308     -218745.36      0             -218263.63     -982.35639    
    272200   326.62053     -218745.53      0             -218266.47     -1482.9116    
    272300   324.8594      -218747.27      0             -218270.8      -272.96521    
    272400   324.86679     -218749.22      0             -218272.74      161.04409    
    272500   326.09716     -218750.72      0             -218272.43     -876.28175    
    272600   328.56045     -218750.72      0             -218268.81     -998.89752    
    272700   324.70003     -218737.72      0             -218261.47     -849.25916    
    272800   325.35137     -218737.87      0             -218260.67      532.08662    
    272900   323.70698     -218745.22      0             -218270.43      741.13263    
    273000   324.99487     -218750.01      0             -218273.33     -145.08361    
    273100   322.09348     -218747.28      0             -218274.87     -899.25926    
    273200   323.03563     -218746.99      0             -218273.19     -477.35724    
    273300   325.52587     -218744.55      0             -218267.1      -1706.2799    
    273400   330.22144     -218746.28      0             -218261.94     -432.68486    
    273500   325.02532     -218744.41      0             -218267.69     -833.67221    
    273600   325.43968     -218753.73      0             -218276.41     -1764.1916    
    273700   326.12806     -218753.55      0             -218275.22     -818.33584    
    273800   326.79682     -218749.48      0             -218270.16     -640.22084    
    273900   325.86515     -218744.74      0             -218266.79     -664.27698    
    274000   325.34552     -218747.52      0             -218270.33      359.34399    
    274100   320.63401     -218750.72      0             -218280.44     -646.21888    
    274200   321.97857     -218751.54      0             -218279.29      1252.3726    
    274300   326.03971     -218750.72      0             -218272.51     -95.452211    
    274400   322.80389     -218743.24      0             -218269.78     -409.94196    
    274500   324.21927     -218745.76      0             -218270.22     -968.75211    
    274600   325.45181     -218750.1       0             -218272.75     -534.71185    
    274700   320.60839     -218751.88      0             -218281.64     -85.380777    
    274800   320.97621     -218754.34      0             -218283.56     -875.16394    
    274900   324.73338     -218751.94      0             -218275.64      48.0708      
    275000   324.97225     -218748.21      0             -218271.56     -830.97012    
    275100   328.76029     -218751.23      0             -218269.04     -452.54893    
    275200   328.80484     -218750.38      0             -218268.11     -482.42396    
    275300   325.59386     -218750.29      0             -218272.74     -8.2560467    
    275400   323.77243     -218755.23      0             -218280.35     -375.69486    
    275500   321.26502     -218750.84      0             -218279.63     -210.13435    
    275600   328.85273     -218754.22      0             -218271.89     -1320.548     
    275700   327.20091     -218749.06      0             -218269.15     -328.74401    
    275800   325.89176     -218748.9       0             -218270.91      112.08672    
    275900   321.26458     -218745.37      0             -218274.16      945.06388    
    276000   320.09512     -218748.36      0             -218278.87     -19.226924    
    276100   319.98463     -218751.55      0             -218282.22     -17.294036    
    276200   322.12843     -218748.23      0             -218275.76     -683.93521    
    276300   323.34117     -218743.07      0             -218268.82     -1325.6412    
    276400   327.86509     -218747.92      0             -218267.03     -211.39591    
    276500   325.53513     -218747.76      0             -218270.29     -841.84471    
    276600   324.42358     -218754.14      0             -218278.3      -709.62631    
    276700   321.0751      -218752.29      0             -218281.36     -875.29745    
    276800   322.85093     -218750.69      0             -218277.16      242.50578    
    276900   323.62071     -218749.11      0             -218274.45     -290.83582    
    277000   327.39169     -218751.34      0             -218271.15      167.86074    
    277100   325.39656     -218744.94      0             -218267.68      699.99171    
    277200   326.2714      -218745.41      0             -218266.87      657.66621    
    277300   325.95296     -218751.37      0             -218273.29      38.933572    
    277400   320.05459     -218749.39      0             -218279.96      326.32005    
    277500   322.41272     -218750.4       0             -218277.51     -1340.6686    
    277600   324.1612      -218746.21      0             -218270.76     -1413.3131    
    277700   326.29983     -218748.91      0             -218270.32     -914.04033    
    277800   323.79635     -218745.95      0             -218271.03      448.52306    
    277900   323.89505     -218746.77      0             -218271.71      134.49333    
    278000   326.24032     -218750.02      0             -218271.52     -471.78497    
    278100   325.11109     -218747.6       0             -218270.76      2.1696334    
    278200   324.55867     -218744.55      0             -218268.52     -1382.0886    
    278300   328.75991     -218748.95      0             -218266.75     -1676.8119    
    278400   325.97058     -218748.39      0             -218270.29     -518.73818    
    278500   319.47354     -218746.52      0             -218277.94     -76.47016     
    278600   321.0877      -218748.83      0             -218277.88      164.08185    
    278700   326.1763      -218748.75      0             -218270.34     -507.627      
    278800   326.7172      -218744.05      0             -218264.85     -683.27179    
    278900   327.79998     -218747.85      0             -218267.06     -912.7956     
    279000   324.95448     -218748.14      0             -218271.52     -981.37743    
    279100   326.93476     -218755.81      0             -218276.29     -77.380823    
    279200   320.27247     -218746.8       0             -218277.06     -271.01161    
    279300   325.75453     -218744.42      0             -218266.63     -694.2519     
    279400   326.72108     -218742.95      0             -218263.74     -249.55342    
    279500   325.52043     -218745.71      0             -218268.26     -1531.5935    
    279600   325.18474     -218751.25      0             -218274.29     -990.2042     
    279700   324.52659     -218750.19      0             -218274.2      -667.93565    
    279800   323.23564     -218747.75      0             -218273.65     -427.98841    
    279900   325.49885     -218747.99      0             -218270.58     -866.76052    
    280000   325.76879     -218743.38      0             -218265.57     -981.21185    
    280100   331.42903     -218742.46      0             -218256.35      53.401258    
    280200   330.72028     -218745.5       0             -218260.42     -745.61398    
    280300   328.07495     -218749.42      0             -218268.23      225.58605    
    280400   322.84296     -218745.5       0             -218271.98      41.582843    
    280500   323.04767     -218748.39      0             -218274.57     -605.03432    
    280600   323.49798     -218749.46      0             -218274.98     -295.48119    
    280700   325.75993     -218746.08      0             -218268.28     -534.63824    
    280800   328.63697     -218744.33      0             -218262.32     -479.82752    
    280900   329.41709     -218748.71      0             -218265.55     -548.9253     
    281000   324.76828     -218747.95      0             -218271.61      196.67048    
    281100   324.84245     -218748.92      0             -218272.47     -795.84383    
    281200   325.49899     -218748.72      0             -218271.3      -1525.3254    
    281300   323.2535      -218742.49      0             -218268.37     -658.23501    
    281400   326.32778     -218740.27      0             -218261.64     -565.30311    
    281500   326.38317     -218739.84      0             -218261.13     -917.52028    
    281600   325.23166     -218748.78      0             -218271.76     -497.08678    
    281700   324.4945      -218751.07      0             -218275.13     -352.82903    
    281800   324.78911     -218751         0             -218274.63      318.19932    
    281900   326.20207     -218748.8       0             -218270.36      599.1815     
    282000   324.76006     -218742.12      0             -218265.79      155.71708    
    282100   326.21739     -218742.1       0             -218263.63      542.35468    
    282200   324.96062     -218745.26      0             -218268.64     -884.81296    
    282300   322.49233     -218749.6       0             -218276.6      -1121.4619    
    282400   324.56295     -218752.84      0             -218276.8      -1016.3656    
    282500   327.01448     -218750.71      0             -218271.07     -363.24321    
    282600   329.87218     -218749.49      0             -218265.67     -451.15707    
    282700   326.15052     -218745.12      0             -218266.75     -1397.9881    
    282800   323.79975     -218743.82      0             -218268.9      -1640.8849    
    282900   324.05041     -218745.95      0             -218270.66      415.57357    
    283000   323.70288     -218747.97      0             -218273.19      66.489113    
    283100   323.56763     -218752.1       0             -218277.52     -1084.1097    
    283200   321.7015      -218751.07      0             -218279.23     -467.13311    
    283300   325.57877     -218750.82      0             -218273.29      268.62947    
    283400   326.32599     -218745.73      0             -218267.1      -582.67397    
    283500   327.72164     -218747.74      0             -218267.07     -559.65862    
    283600   322.79805     -218746.81      0             -218273.35     -1227.7583    
    283700   321.07084     -218751.26      0             -218280.34     -1239.0994    
    283800   321.7396      -218750.13      0             -218278.23     -291.00418    
    283900   324.62401     -218749.24      0             -218273.11     -608.50955    
    284000   326.5584      -218748.42      0             -218269.45     -995.07142    
    284100   326.15684     -218747.35      0             -218268.97     -437.96543    
    284200   325.32115     -218749.14      0             -218271.99     -449.0065     
    284300   323.05844     -218755.29      0             -218281.45     -171.8147     
    284400   323.98999     -218755.27      0             -218280.07     -546.26232    
    284500   325.2267      -218750.38      0             -218273.37     -550.35562    
    284600   325.88662     -218747.65      0             -218269.67      200.37584    
    284700   322.83239     -218742.81      0             -218269.31      338.73437    
    284800   325.23703     -218748.07      0             -218271.04     -197.56716    
    284900   320.67216     -218745.78      0             -218275.45      247.03121    
    285000   320.6196      -218755.47      0             -218285.22     -881.53888    
    285100   320.9876      -218752.84      0             -218282.04     -987.41104    
    285200   324.55857     -218751.5       0             -218275.46     -157.71256    
    285300   324.66195     -218748.04      0             -218271.85     -543.04418    
    285400   329.02371     -218751.96      0             -218269.38     -1210.3671    
    285500   326.5367      -218748.52      0             -218269.59     -1638.8884    
    285600   324.3159      -218752.03      0             -218276.35     -372.87926    
    285700   322.75455     -218754.11      0             -218280.72      295.83348    
    285800   323.87162     -218751.66      0             -218276.63     -490.56687    
    285900   327.85726     -218748.47      0             -218267.6      -228.86762    
    286000   324.95943     -218743.69      0             -218267.06     -1076.2135    
    286100   325.46968     -218747.53      0             -218270.16     -907.11422    
    286200   326.89227     -218755.66      0             -218276.2      -106.19678    
    286300   321.94532     -218750.24      0             -218278.04     -413.86014    
    286400   323.8419      -218750.11      0             -218275.13     -448.62223    
    286500   321.59169     -218744.44      0             -218272.75     -632.10863    
    286600   321.47785     -218742.37      0             -218270.85     -2022.3145    
    286700   323.07384     -218743.43      0             -218269.58     -1425.3574    
    286800   324.41391     -218744.86      0             -218269.04     -631.05836    
    286900   323.64487     -218744.67      0             -218269.97      5.9833689    
    287000   324.32242     -218749.64      0             -218273.95      670.61743    
    287100   325.22029     -218755.58      0             -218278.57      79.178582    
    287200   321.07071     -218749.74      0             -218278.82     -141.41173    
    287300   327.42062     -218749.35      0             -218269.12      358.8071     
    287400   327.1006      -218745.43      0             -218265.66     -594.24439    
    287500   327.3596      -218749.31      0             -218269.16      201.15992    
    287600   323.06684     -218748.4       0             -218274.55     -281.84278    
    287700   323.11367     -218749.76      0             -218275.84     -331.74609    
    287800   322.54159     -218746.46      0             -218273.38      167.329      
    287900   325.6079      -218750.46      0             -218272.89     -312.10152    
    288000   325.87722     -218750.53      0             -218272.56     -577.88538    
    288100   324.60822     -218747.6       0             -218271.49     -341.86484    
    288200   323.31928     -218741.77      0             -218267.55     -968.48107    
    288300   327.44741     -218743.03      0             -218262.75     -349.12913    
    288400   324.73126     -218743.14      0             -218266.86     -493.75626    
    288500   323.68958     -218750.02      0             -218275.26     -360.45994    
    288600   321.06277     -218747.66      0             -218276.75      529.56684    
    288700   325.28697     -218749.74      0             -218272.63     -717.82184    
    288800   328.41089     -218751.09      0             -218269.4       1382.0263    
    288900   327.89859     -218750.11      0             -218269.18     -1017.3871    
    289000   321.55978     -218750.19      0             -218278.56     -405.10736    
    289100   320.60445     -218752.19      0             -218281.95      59.178618    
    289200   324.65341     -218752.86      0             -218276.69     -1980.9622    
    289300   325.48929     -218747.01      0             -218269.61     -968.40297    
    289400   326.88552     -218747.54      0             -218268.09     -900.07185    
    289500   323.69428     -218745.3       0             -218270.53     -1170.6335    
    289600   325.12203     -218753.01      0             -218276.15      41.355209    
    289700   322.26097     -218754.21      0             -218281.54      431.62245    
    289800   322.55301     -218758.05      0             -218284.96     -182.75206    
    289900   324.52869     -218756.19      0             -218280.19      661.59394    
    290000   328.99621     -218754.69      0             -218272.15      139.17447    
    290100   326.50305     -218747.07      0             -218268.18      527.35867    
    290200   326.05529     -218746.94      0             -218268.71     -233.22738    
    290300   326.85879     -218754.62      0             -218275.21      176.1107     
    290400   321.85686     -218753.65      0             -218281.58     -309.49689    
    290500   321.24014     -218750.19      0             -218279.02     -1192.1955    
    290600   324.92871     -218751.25      0             -218274.68     -1054.3535    
    290700   324.98124     -218748.95      0             -218272.29     -382.65418    
    290800   325.61592     -218748.09      0             -218270.51     -915.50279    
    290900   327.46836     -218748.45      0             -218268.15      455.62771    
    291000   329.26931     -218748.29      0             -218265.34      1437.4897    
    291100   325.14024     -218745.44      0             -218268.55     -182.67001    
    291200   325.94775     -218753.22      0             -218275.15     -62.882042    
    291300   323.35148     -218752.85      0             -218278.59     -1469.3529    
    291400   323.99416     -218751.78      0             -218276.57     -1085.2408    
    291500   328.9449      -218748.62      0             -218266.16      12.326575    
    291600   326.14266     -218742.79      0             -218264.43      653.05398    
    291700   327.63558     -218749.71      0             -218269.16      298.52595    
    291800   322.72668     -218748.61      0             -218275.26      490.55886    
    291900   323.20222     -218750.09      0             -218276.05      205.10685    
    292000   328.59637     -218754.49      0             -218272.54     -948.04832    
    292100   324.86382     -218739.01      0             -218262.53      628.58576    
    292200   329.4833      -218744.7       0             -218261.44      795.29405    
    292300   326.85166     -218748.09      0             -218268.69     -950.71753    
    292400   325.89231     -218750.98      0             -218272.98      77.278583    
    292500   320.84483     -218744.79      0             -218274.2      -781.55717    
    292600   323.87729     -218749.65      0             -218274.61     -108.19953    
    292700   324.06904     -218746.28      0             -218270.97     -847.06431    
    292800   327.76414     -218745.38      0             -218264.64     -1045.7215    
    292900   324.57734     -218739.99      0             -218263.93     -683.2693     
    293000   323.50984     -218747.06      0             -218272.56     -176.23802    
    293100   325.03863     -218753.66      0             -218276.92     -883.36382    
    293200   324.18015     -218750.68      0             -218275.2      -678.62339    
    293300   327.38498     -218750.87      0             -218270.69     -771.4341     
    293400   325.84483     -218744.28      0             -218266.36     -1450.6961    
    293500   327.63665     -218738.94      0             -218258.39     -549.00484    
    293600   329.79385     -218739.94      0             -218256.23     -685.29749    
    293700   329.26382     -218749.86      0             -218266.92     -383.15887    
    293800   321.90813     -218744.06      0             -218271.91     -441.70806    
    293900   323.53012     -218751.53      0             -218277         14.704293    
    294000   327.76193     -218758.11      0             -218277.37     -1087.3264    
    294100   324.89851     -218748.41      0             -218271.87     -556.61766    
    294200   329.17138     -218747.17      0             -218264.37     -760.31974    
    294300   327.08916     -218745.66      0             -218265.91     -351.23587    
    294400   330.99074     -218755         0             -218269.53     -953.18045    
    294500   327.47959     -218751.69      0             -218271.37     -513.03192    
    294600   326.04026     -218752.76      0             -218274.55     -949.11218    
    294700   324.9517      -218753.32      0             -218276.7      -1343.5806    
    294800   323.58355     -218748.83      0             -218274.23     -558.53642    
    294900   326.35396     -218746.07      0             -218267.4      -433.13168    
    295000   324.23295     -218741.05      0             -218265.49     -88.833114    
    295100   325.74185     -218749.41      0             -218271.64     -1522.3277    
    295200   326.48947     -218756.05      0             -218277.18      779.52159    
    295300   321.43749     -218748.44      0             -218276.98     -266.44731    
    295400   327.56769     -218754.25      0             -218273.8      -134.40012    
    295500   323.69556     -218747.01      0             -218272.24     -945.87394    
    295600   322.97402     -218745         0             -218271.29     -982.64992    
    295700   323.83808     -218746.5       0             -218271.53     -334.20586    
    295800   323.51724     -218746.48      0             -218271.97     -203.40957    
    295900   324.32905     -218747.31      0             -218271.61     -495.66253    
    296000   327.36212     -218752.98      0             -218272.83     -1121.4123    
    296100   321.3097      -218748.47      0             -218277.2      -504.79607    
    296200   321.89066     -218753.07      0             -218280.95     -607.62969    
    296300   323.1336      -218752.07      0             -218278.13      3.9338477    
    296400   325.94732     -218747.23      0             -218269.16      83.398392    
    296500   325.29181     -218745.32      0             -218268.21     -511.12803    
    296600   325.9461      -218749.76      0             -218271.69     -894.52018    
    296700   325.15883     -218754.47      0             -218277.55      796.09164    
    296800   320.76869     -218751.54      0             -218281.06      447.9058     
    296900   323.63922     -218750.64      0             -218275.95      465.17456    
    297000   326.6956      -218746.21      0             -218267.04     -1024.627     
    297100   326.87986     -218745.18      0             -218265.74     -877.34085    
    297200   325.17469     -218747.7       0             -218270.77     -949.93477    
    297300   324.69674     -218752.75      0             -218276.52     -1503.9586    
    297400   323.61194     -218752.51      0             -218277.86     -1341.7052    
    297500   322.57805     -218744.26      0             -218271.13     -318.70076    
    297600   328.40926     -218744.26      0             -218262.58     -568.25891    
    297700   328.85851     -218748.48      0             -218266.14     -563.76835    
    297800   325.27164     -218750.14      0             -218273.06      587.27872    
    297900   324.90392     -218752.74      0             -218276.2       19.988859    
    298000   323.8075      -218750.6       0             -218275.67     -620.42       
    298100   326.07248     -218746.93      0             -218268.67      152.71902    
    298200   329.01814     -218745.03      0             -218262.46     -859.07554    
    298300   326.15712     -218744.96      0             -218266.58     -23.529075    
    298400   324.6858      -218749.03      0             -218272.81     -816.60552    
    298500   323.90516     -218748.4       0             -218273.32     -1042.6969    
    298600   324.28404     -218749.29      0             -218273.66     -307.93935    
    298700   324.39193     -218748.68      0             -218272.89     -939.94464    
    298800   328.62335     -218747.46      0             -218265.47     -227.20205    
    298900   327.47712     -218743.26      0             -218262.94     -706.57061    
    299000   323.61213     -218743.11      0             -218268.46     -1261.3115    
    299100   322.69159     -218749.32      0             -218276.02     -865.71397    
    299200   323.54111     -218750.76      0             -218276.22      878.29408    
    299300   322.06789     -218744.7       0             -218272.32      244.62535    
    299400   328.06493     -218748.31      0             -218267.13     -551.79573    
    299500   326.63761     -218742.33      0             -218263.25      109.3044     
    299600   327.96444     -218744.49      0             -218263.46     -1238.4618    
    299700   323.7962      -218746.74      0             -218271.82     -987.08854    
    299800   322.7246      -218748.93      0             -218275.58     -1362.0537    
    299900   322.46258     -218749.89      0             -218276.93     -1466.4519    
    300000   325.25345     -218748.98      0             -218271.92     -2093.0129    
    300100   327.98498     -218744.75      0             -218263.69     -442.16937    
    300200   325.0383      -218742.32      0             -218265.58      176.84567    
    300300   327.28682     -218750.15      0             -218270.11     -8.5895188    
    300400   323.56368     -218747.38      0             -218272.81     -451.16901    
    300500   325.28365     -218750.49      0             -218273.39     -26.330802    
    300600   324.13627     -218748.18      0             -218272.77     -827.34417    
    300700   329.0055      -218752.42      0             -218269.86      46.146507    
    300800   328.0962      -218747.25      0             -218266.03     -215.02238    
    300900   325.25307     -218745.33      0             -218268.27      484.31892    
    301000   324.29664     -218751.1       0             -218275.45     -389.46424    
    301100   321.11925     -218749.89      0             -218278.89     -219.03085    
    301200   324.32002     -218752.05      0             -218276.36     -865.58556    
    301300   323.20791     -218744.35      0             -218270.29     -213.11032    
    301400   329.34336     -218745.91      0             -218262.86     -655.78828    
    301500   330.91386     -218740.53      0             -218255.18     -880.72504    
    301600   333.37086     -218744.63      0             -218255.67     -655.55996    
    301700   330.12985     -218750.64      0             -218266.43     -258.31538    
    301800   324.31879     -218748.21      0             -218272.53     -761.68797    
    301900   324.00419     -218751.62      0             -218276.4      -1042.815     
    302000   324.8248      -218752.89      0             -218276.46     -2136.8419    
    302100   326.71824     -218748.77      0             -218269.57     -819.29794    
    302200   327.5857      -218746.71      0             -218266.24      78.292403    
    302300   323.77779     -218743.56      0             -218268.67      245.28539    
    302400   324.86423     -218757         0             -218280.52     -938.68038    
    302500   324.92408     -218756.6       0             -218280.03     -798.6332     
    302600   325.00919     -218750.94      0             -218274.24      176.23247    
    302700   326.34982     -218748.01      0             -218269.34     -192.03032    
    302800   325.03351     -218744.93      0             -218268.2      -1103.7759    
    302900   324.07831     -218751.03      0             -218275.7      -1183.6013    
    303000   321.68704     -218754.14      0             -218282.32     -361.09561    
    303100   325.65686     -218756.9       0             -218279.26     -807.83967    
    303200   325.37182     -218750.46      0             -218273.23      46.910646    
    303300   326.4987      -218750.01      0             -218271.13      1079.1488    
    303400   326.59757     -218749.99      0             -218270.96      29.39366     
    303500   321.0521      -218742.79      0             -218271.9       776.1029     
    303600   328.02805     -218755.53      0             -218274.41     -163.12687    
    303700   324.8874      -218755.93      0             -218279.41     -392.5494     
    303800   321.09647     -218750.18      0             -218279.22      43.875074    
    303900   325.66334     -218748.88      0             -218271.22     -818.44298    
    304000   328.06159     -218748.6       0             -218267.43     -17.734094    
    304100   324.75054     -218746.54      0             -218270.22     -102.95544    
    304200   324.22712     -218749.37      0             -218273.82     -271.39284    
    304300   324.89263     -218752.16      0             -218275.63      71.466346    
    304400   325.32249     -218752.36      0             -218275.21     -620.13514    
    304500   325.76458     -218751.56      0             -218273.75     -1743.8479    
    304600   324.37032     -218749.56      0             -218273.8      -593.04929    
    304700   326.2655      -218749.68      0             -218271.14      788.05232    
    304800   325.9777      -218746.59      0             -218268.48      50.706703    
    304900   326.62289     -218745.36      0             -218266.3      -616.00467    
    305000   327.88924     -218750.67      0             -218269.75     -951.63402    
    305100   321.55012     -218748.54      0             -218276.92     -92.833006    
    305200   322.4927      -218751.58      0             -218278.57     -819.69851    
    305300   324.26114     -218749.5       0             -218273.9      -195.92164    
    305400   330.40106     -218748.83      0             -218264.22      144.47195    
    305500   325.79671     -218742.92      0             -218265.07     -255.33472    
    305600   327.86961     -218750.28      0             -218269.39     -29.116562    
    305700   324.96069     -218750.91      0             -218274.29     -102.08503    
    305800   324.04389     -218751.78      0             -218276.5       111.73773    
    305900   323.5092      -218750.65      0             -218276.16     -209.80243    
    306000   326.99429     -218753.49      0             -218273.88     -571.51658    
    306100   324.69416     -218748.89      0             -218272.65     -194.11638    
    306200   326.1056      -218751.26      0             -218272.96     -891.55363    
    306300   318.44563     -218742.17      0             -218275.1      -646.10254    
    306400   323.21616     -218751.09      0             -218277.03     -177.86463    
    306500   322.95978     -218751.41      0             -218277.72     -133.98352    
    306600   322.89422     -218746.27      0             -218272.67      226.52084    
    306700   324.84973     -218743.75      0             -218267.29     -191.57222    
    306800   328.72655     -218749.74      0             -218267.59     -325.58664    
    306900   324.74227     -218753.93      0             -218277.63     -396.58447    
    307000   324.88258     -218757.13      0             -218280.62      76.876986    
    307100   323.01253     -218750.6       0             -218276.83     -632.36635    
    307200   326.42496     -218749.27      0             -218270.5       662.88467    
    307300   328.43121     -218750.99      0             -218269.28     -537.96591    
    307400   321.63757     -218742.49      0             -218270.74     -6.0262765    
    307500   324.47664     -218751.36      0             -218275.45     -56.417513    
    307600   320.35561     -218755.68      0             -218285.81     -165.31018    
    307700   322.06127     -218754.62      0             -218282.25     -462.64279    
    307800   324.48355     -218750.48      0             -218274.55     -53.546395    
    307900   325.6394      -218748.57      0             -218270.95      353.33222    
    308000   327.37329     -218749.99      0             -218269.83     -420.93646    
    308100   328.3406      -218753.98      0             -218272.4       293.9288     
    308200   322.49914     -218753.52      0             -218280.51      370.3745     
    308300   324.88531     -218757.8       0             -218281.28     -347.70446    
    308400   325.39707     -218751.74      0             -218274.48      817.05072    
    308500   324.67877     -218746.98      0             -218270.77      218.22628    
    308600   325.86266     -218750.02      0             -218272.07      24.921613    
    308700   321.768       -218747.63      0             -218275.69     -259.83813    
    308800   322.48842     -218747.9       0             -218274.9      -693.92186    
    308900   327.83594     -218748.65      0             -218267.81      156.03401    
    309000   326.97726     -218742.4       0             -218262.82     -624.37207    
    309100   325.34891     -218744.77      0             -218267.58     -909.58627    
    309200   324.81562     -218751.44      0             -218275.03     -932.84901    
    309300   324.42593     -218751.24      0             -218275.4       121.3522     
    309400   325.78119     -218750.93      0             -218273.1       189.94496    
    309500   327.12486     -218747.23      0             -218267.43     -365.85301    
    309600   325.27744     -218743.35      0             -218266.27     -1534.9016    
    309700   321.03427     -218747.8       0             -218276.94     -1011.0464    
    309800   322.60725     -218753.64      0             -218280.46      59.413186    
    309900   325.06553     -218752.26      0             -218275.48      1073.4767    
    310000   324.54374     -218746.1       0             -218270.08     -101.88659    
    310100   329.26501     -218750.21      0             -218267.28      273.11285    
    310200   324.70956     -218746.42      0             -218270.16      77.41619     
    310300   321.13805     -218752.66      0             -218281.64     -671.64       
    310400   323.31008     -218755.98      0             -218281.78     -346.54197    
    310500   320.93114     -218745.87      0             -218275.16     -525.93863    
    310600   322.84339     -218743.13      0             -218269.61     -887.13264    
    310700   329.57439     -218751.3       0             -218267.91      973.87945    
    310800   328.0069      -218752.47      0             -218271.38     -558.38312    
    310900   325.10836     -218757.05      0             -218280.2      -56.728204    
    311000   323.2213      -218754.54      0             -218280.47     -751.81109    
    311100   322.33536     -218749.02      0             -218276.24     -773.21685    
    311200   322.59032     -218746.39      0             -218273.24     -880.16235    
    311300   326.11949     -218750.74      0             -218272.42     -800.57615    
    311400   323.3906      -218745.42      0             -218271.1      -145.73286    
    311500   329.20732     -218754.04      0             -218271.19     -698.84626    
    311600   325.1367      -218754.37      0             -218277.49      608.77331    
    311700   321.53242     -218752.88      0             -218281.28     -1640.8053    
    311800   323.40168     -218750.31      0             -218275.98     -1053.4414    
    311900   329.12056     -218752.05      0             -218269.32     -26.456728    
    312000   325.75006     -218747         0             -218269.21     -444.87967    
    312100   325.62242     -218748.83      0             -218271.24     -647.78165    
    312200   322.1121      -218748.14      0             -218275.69     -1428.6122    
    312300   323.98362     -218759.69      0             -218284.49     -662.45638    
    312400   316.78422     -218751.9       0             -218287.27     -298.19291    
    312500   322.33938     -218751.56      0             -218278.78     -998.00963    
    312600   323.91486     -218750         0             -218274.91     -216.06871    
    312700   325.259       -218748.63      0             -218271.57      493.59057    
    312800   328.16509     -218750.42      0             -218269.1       261.3155     
    312900   326.18787     -218747.06      0             -218268.64      295.69858    
    313000   320.9097      -218745.47      0             -218274.79      1234.2144    
    313100   323.71712     -218755.02      0             -218280.22     -129.26802    
    313200   324.80713     -218754.94      0             -218278.54     -99.010427    
    313300   325.16393     -218745.18      0             -218268.26     -1379.9528    
    313400   325.59615     -218744.92      0             -218267.36     -2017.1027    
    313500   323.12518     -218744.1       0             -218270.17     -473.3436     
    313600   328.61697     -218756.57      0             -218274.59     -289.23862    
    313700   323.40723     -218754.31      0             -218279.96     -1251.1163    
    313800   322.84033     -218751.88      0             -218278.37     -231.89499    
    313900   324.05211     -218743.46      0             -218268.17     -262.93541    
    314000   327.8218      -218745.94      0             -218265.12      187.56128    
    314100   326.0893      -218748.81      0             -218270.53     -465.85483    
    314200   324.02831     -218751.87      0             -218276.61     -450.90648    
    314300   322.56129     -218750.08      0             -218276.97     -335.07838    
    314400   323.47101     -218749.06      0             -218274.62     -636.91045    
    314500   325.29024     -218747.25      0             -218270.15     -427.16234    
    314600   327.97226     -218740.29      0             -218259.25     -47.839441    
    314700   329.40283     -218739.62      0             -218256.48     -686.15315    
    314800   329.71315     -218747.31      0             -218263.71     -578.89357    
    314900   323.69165     -218744.35      0             -218269.58     -915.03412    
    315000   322.8878      -218748.2       0             -218274.62     -733.3088     
    315100   322.7727      -218749.51      0             -218276.1      -1365.9425    
    315200   326.18832     -218750.7       0             -218272.27     -1110.6706    
    315300   331.7474      -218750.83      0             -218264.25     -811.94458    
    315400   325.15467     -218741.24      0             -218264.33      143.54912    
    315500   325.84156     -218749.42      0             -218271.5       129.19844    
    315600   324.88621     -218750.27      0             -218273.75      181.08634    
    315700   325.57768     -218751.51      0             -218273.98      725.74461    
    315800   325.15772     -218750.2       0             -218273.29     -1059.7135    
    315900   326.85174     -218751.13      0             -218271.73     -499.61394    
    316000   323.96475     -218744.72      0             -218269.55     -62.425521    
    316100   324.80134     -218745.43      0             -218269.04      299.01548    
    316200   323.25753     -218746.82      0             -218272.69     -797.21686    
    316300   323.31996     -218752.5       0             -218278.29     -788.84577    
    316400   320.31984     -218751.21      0             -218281.39     -154.95911    
    316500   323.22555     -218748.76      0             -218274.68     -404.71853    
    316600   326.59456     -218745.9       0             -218266.88     -1062.1057    
    316700   323.47106     -218743.67      0             -218269.23     -231.23553    
    316800   324.19961     -218750.82      0             -218275.31     -294.02657    
    316900   323.34374     -218752.37      0             -218278.12     -741.36471    
    317000   323.78595     -218749.92      0             -218275.02     -85.089988    
    317100   327.00399     -218744.99      0             -218265.37      388.81591    
    317200   325.92073     -218744.58      0             -218266.54     -487.07338    
    317300   321.6629      -218744.68      0             -218272.9       474.16155    
    317400   323.57034     -218750.44      0             -218275.85     -692.02414    
    317500   323.1788      -218748.67      0             -218274.66     -1046.658     
    317600   323.6722      -218747.3       0             -218272.56     -2.6710329    
    317700   322.61219     -218744.31      0             -218271.13     -343.25777    
    317800   326.67118     -218751.04      0             -218271.91     -77.565818    
    317900   323.72842     -218747.24      0             -218272.42      50.923731    
    318000   327.90586     -218753.4       0             -218272.46     -41.853674    
    318100   323.52529     -218747.44      0             -218272.92      397.49469    
    318200   327.61788     -218751.83      0             -218271.31     -333.62125    
    318300   326.35384     -218747.37      0             -218268.7      -432.13926    
    318400   329.19573     -218749.93      0             -218267.09     -916.20772    
    318500   327.5379      -218752.29      0             -218271.89     -628.78954    
    318600   325.94818     -218757.1       0             -218279.02      230.96578    
    318700   324.64388     -218755.53      0             -218279.37     -111.70031    
    318800   324.67222     -218750.49      0             -218274.28      64.895194    
    318900   320.52479     -218737.72      0             -218267.6      -724.44792    
    319000   325.91282     -218745.15      0             -218267.13      1095.1578    
    319100   325.16284     -218746.92      0             -218270        -845.56654    
    319200   320.66792     -218746.71      0             -218276.38      625.98681    
    319300   322.07865     -218750.42      0             -218278.03     -462.80817    
    319400   328.1409      -218753.59      0             -218272.3      -737.0136     
    319500   328.65054     -218746.48      0             -218264.45      879.42212    
    319600   324.57246     -218742.5       0             -218266.45     -554.82498    
    319700   325.33276     -218746.99      0             -218269.82      95.299068    
    319800   323.63105     -218748.54      0             -218273.87     -233.85954    
    319900   325.04357     -218752.73      0             -218275.98      40.370394    
    320000   322.227       -218749.63      0             -218277.02     -819.60818    
    320100   324.65536     -218750.46      0             -218274.28     -1022.5774    
    320200   325.15973     -218745.27      0             -218268.35     -457.86122    
    320300   326.61164     -218745.79      0             -218266.74      41.755316    
    320400   328.45615     -218755.31      0             -218273.56     -829.40783    
    320500   327.75575     -218759.65      0             -218278.93     -952.52528    
    320600   323.5195      -218752.39      0             -218277.88     -215.43256    
    320700   325.75733     -218751.66      0             -218273.86      226.51461    
    320800   326.419       -218750.18      0             -218271.42      560.6398     
    320900   324.33485     -218747.48      0             -218271.77     -82.899165    
    321000   323.34819     -218746.75      0             -218272.49     -1857.3096    
    321100   322.72247     -218746.77      0             -218273.43      142.37387    
    321200   322.6214      -218746.68      0             -218273.49     -608.89709    
    321300   326.44198     -218753.73      0             -218274.93     -728.83972    
    321400   320.69476     -218747.16      0             -218276.79     -481.21992    
    321500   323.75643     -218751.41      0             -218276.55     -575.22781    
    321600   324.99776     -218748.79      0             -218272.12     -742.60222    
    321700   328.2107      -218748.25      0             -218266.86     -595.36475    
    321800   328.12537     -218749.04      0             -218267.78      413.405      
    321900   319.60035     -218746.11      0             -218277.35      262.53457    
    322000   324.83614     -218754.81      0             -218278.36     -46.456575    
    322100   322.2638      -218748.16      0             -218275.49      616.63786    
    322200   327.58629     -218750.64      0             -218270.17     -136.28497    
    322300   322.09305     -218741.5       0             -218269.08     -183.59726    
    322400   326.3734      -218749.48      0             -218270.79     -1074.3994    
    322500   324.72196     -218754.59      0             -218278.32     -165.54461    
    322600   321.58038     -218753.08      0             -218281.42      9.6823862    
    322700   320.4635      -218747.05      0             -218277.02     -1254.9637    
    322800   325.49675     -218747.09      0             -218269.68     -304.29061    
    322900   329.97688     -218753.84      0             -218269.86      114.00792    
    323000   323.52341     -218747.79      0             -218273.27      1060.0266    
    323100   325.22173     -218754.28      0             -218277.27     -148.10298    
    323200   323.45542     -218753.97      0             -218279.55     -1464.4467    
    323300   320.28149     -218749.37      0             -218279.6      -835.81537    
    323400   326.44671     -218752.22      0             -218273.41     -832.61934    
    323500   327.98966     -218748.81      0             -218267.74     -61.034684    
    323600   327.77791     -218748.12      0             -218267.36     -172.60631    
    323700   324.03601     -218749.64      0             -218274.38      366.09154    
    323800   324.04631     -218755.92      0             -218280.64      409.85804    
    323900   323.62141     -218752.83      0             -218278.17      75.953384    
    324000   327.51702     -218753.48      0             -218273.11      649.3422     
    324100   325.70792     -218749.46      0             -218271.74      324.94555    
    324200   324.05859     -218747.68      0             -218272.38      417.97285    
    324300   328.13369     -218754.87      0             -218273.59     -199.07667    
    324400   322.0001      -218756.25      0             -218283.97     -242.85149    
    324500   319.44827     -218753.83      0             -218285.29     -28.066631    
    324600   325.73096     -218754.82      0             -218277.07      261.919      
    324700   323.9806      -218747.62      0             -218272.43     -885.42822    
    324800   323.77936     -218745.34      0             -218270.45     -571.05453    
    324900   326.35503     -218749.84      0             -218271.17      165.25298    
    325000   322.74966     -218751.23      0             -218277.84      887.62342    
    325100   322.11943     -218754.95      0             -218282.5       720.60645    
    325200   322.37699     -218752.14      0             -218279.31     -490.69888    
    325300   326.34003     -218748.19      0             -218269.54     -362.16934    
    325400   324.45733     -218745.42      0             -218269.53     -224.8898     
    325500   321.49139     -218744.4       0             -218272.86     -105.78221    
    325600   327.51261     -218758.92      0             -218278.56     -434.38357    
    325700   324.13448     -218756.71      0             -218281.3      -450.56516    
    325800   322.76298     -218749.44      0             -218276.04     -402.66124    
    325900   326.96389     -218747.63      0             -218268.07     -866.64402    
    326000   327.24503     -218747.42      0             -218267.44     -405.29812    
    326100   324.80866     -218749.51      0             -218273.11     -881.88088    
    326200   325.24756     -218755.5       0             -218278.45     -299.19902    
    326300   322.18834     -218751.43      0             -218278.87     -417.94044    
    326400   327.83535     -218753.51      0             -218272.67     -384.74545    
    326500   329.1982      -218744.8       0             -218261.96      63.461227    
    326600   327.09862     -218743.65      0             -218263.89     -104.17675    
    326700   326.83899     -218750.74      0             -218271.36      841.10402    
    326800   325.06008     -218753.43      0             -218276.66     -280.43531    
    326900   324.18076     -218752.2       0             -218276.72     -209.38009    
    327000   325.53201     -218748.58      0             -218271.12      607.17599    
    327100   329.37433     -218747.56      0             -218264.46     -1478.2555    
    327200   328.88075     -218750.61      0             -218268.24     -640.87287    
    327300   322.54042     -218745.09      0             -218272.02     -427.64859    
    327400   324.46398     -218749.18      0             -218273.29     -583.42793    
    327500   323.20558     -218747.27      0             -218273.22     -44.731549    
    327600   321.9932      -218746.46      0             -218274.19     -739.27055    
    327700   325.94611     -218754.81      0             -218276.74     -570.44649    
    327800   322.65318     -218753.8       0             -218280.56      424.43644    
    327900   321.32957     -218751.39      0             -218280.09     -297.57398    
    328000   326.56414     -218751.46      0             -218272.48     -136.28377    
    328100   328.44464     -218749.05      0             -218267.32      114.3533     
    328200   324.36189     -218745.36      0             -218269.62      401.99698    
    328300   326.96946     -218752.21      0             -218272.64     -807.19937    
    328400   323.68341     -218751.75      0             -218277        -619.2533     
    328500   321.64159     -218759.4       0             -218287.64     -301.62633    
    328600   326.16014     -218761.95      0             -218283.56     -1234.1689    
    328700   325.34031     -218754.57      0             -218277.39     -791.35475    
    328800   326.7285      -218751.38      0             -218272.16      460.19308    
    328900   324.81963     -218746.9       0             -218270.48     -242.98315    
    329000   325.52052     -218748.82      0             -218271.38      276.91044    
    329100   320.88367     -218750.78      0             -218280.14     -405.97808    
    329200   322.02035     -218754.3       0             -218281.99     -906.18664    
    329300   325.71247     -218753.42      0             -218275.69      41.949902    
    329400   325.43355     -218748.86      0             -218271.54     -316.76183    
    329500   324.95707     -218747.71      0             -218271.1      -570.14976    
    329600   327.77463     -218753.15      0             -218272.4      -579.86337    
    329700   323.23277     -218749.91      0             -218275.82     -459.35875    
    329800   320.16174     -218752.23      0             -218282.65     -339.69129    
    329900   319.52045     -218756.91      0             -218288.26     -499.86085    
    330000   319.3842      -218749.46      0             -218281.02      57.5258      
    330100   323.85373     -218751.46      0             -218276.46      88.003987    
    330200   325.60184     -218750.44      0             -218272.87      153.79381    
    330300   327.35738     -218749.59      0             -218269.45      119.53579    
    330400   328.78558     -218751.23      0             -218268.99     -1108.4869    
    330500   325.8713      -218754.83      0             -218276.87     -487.04773    
    330600   321.67833     -218753.16      0             -218281.35      13.522841    
    330700   323.10566     -218752.16      0             -218278.26      47.084896    
    330800   326.06949     -218748.82      0             -218270.57     -200.33695    
    330900   327.25693     -218749.37      0             -218269.37      703.49254    
    331000   323.99615     -218746.38      0             -218271.17      960.36154    
    331100   324.01829     -218749.08      0             -218273.84      297.78228    
    331200   320.91442     -218751.69      0             -218281        -1131.8671    
    331300   320.08129     -218755.9       0             -218286.44      229.80944    
    331400   326.94766     -218756.79      0             -218277.25     -286.50759    
    331500   325.08074     -218746.85      0             -218270.05      441.89658    
    331600   328.55535     -218750.03      0             -218268.14     -778.33       
    331700   326.34425     -218749.51      0             -218270.85     -877.28193    
    331800   324.61421     -218753.49      0             -218277.38     -57.145628    
    331900   322.64975     -218753.54      0             -218280.3       491.68295    
    332000   324.33458     -218750.43      0             -218274.73      5.6682964    
    332100   326.43478     -218745.35      0             -218266.56     -370.42003    
    332200   324.48791     -218743.85      0             -218267.92     -24.409397    
    332300   326.47411     -218751.73      0             -218272.88     -11.941722    
    332400   322.50669     -218749.75      0             -218276.73     -486.93432    
    332500   323.48833     -218750.26      0             -218275.79     -387.82358    
    332600   326.46343     -218745.41      0             -218266.58     -189.13331    
    332700   327.47696     -218742.94      0             -218262.62     -380.85735    
    332800   326.33841     -218747.19      0             -218268.55     -948.08192    
    332900   322.3061      -218747.46      0             -218274.72     -345.45964    
    333000   325.28627     -218752.25      0             -218275.15      122.96317    
    333100   323.37921     -218748.06      0             -218273.76      495.08661    
    333200   327.77007     -218749.65      0             -218268.9       381.58811    
    333300   329.74549     -218745.29      0             -218261.65     -558.6126     
    333400   326.51247     -218744.36      0             -218265.46     -616.99612    
    333500   325.21298     -218751.18      0             -218274.19     -312.83602    
    333600   325.77332     -218752.66      0             -218274.84     -169.56702    
    333700   325.37542     -218749.67      0             -218272.44     -512.17514    
    333800   325.63299     -218748.06      0             -218270.45     -512.65978    
    333900   322.13639     -218742.67      0             -218270.19     -212.23526    
    334000   323.84047     -218748.52      0             -218273.54     -965.07229    
    334100   321.96147     -218751.29      0             -218279.07     -243.98834    
    334200   323.18198     -218753.6       0             -218279.59     -699.36664    
    334300   327.19052     -218750.67      0             -218270.77     -452.6706     
    334400   325.95392     -218744.82      0             -218266.74     -490.3028     
    334500   326.07551     -218746.84      0             -218268.58     -87.593946    
    334600   326.69515     -218751.24      0             -218272.07     -556.39019    
    334700   323.77026     -218754.18      0             -218279.31      289.73099    
    334800   320.21858     -218752.54      0             -218282.87     -300.81519    
    334900   328.33331     -218751.82      0             -218270.24      59.286013    
    335000   327.1023      -218745.98      0             -218266.21      750.60408    
    335100   326.66781     -218749.37      0             -218270.24      691.33528    
    335200   324.85216     -218753.03      0             -218276.57     -1127.9207    
    335300   323.67754     -218753.98      0             -218279.24      155.72577    
    335400   321.06645     -218746.58      0             -218275.67      11.839353    
    335500   328.85993     -218748.98      0             -218266.64     -1060.4586    
    335600   326.79008     -218746.42      0             -218267.12     -193.21871    
    335700   328.78749     -218753.2       0             -218270.96      745.78225    
    335800   325.53783     -218751.11      0             -218273.64      469.8756     
    335900   323.21782     -218748.92      0             -218274.85     -289.91268    
    336000   322.50474     -218749.77      0             -218276.75      145.11662    
    336100   321.82712     -218757.83      0             -218285.81      198.23502    
    336200   320.95611     -218754.86      0             -218284.11      707.53232    
    336300   325.34378     -218753.01      0             -218275.82      401.78393    
    336400   327.42652     -218751.29      0             -218271.05      720.02287    
    336500   325.95729     -218748.58      0             -218270.49     -715.53254    
    336600   322.17882     -218748.35      0             -218275.81     -141.26017    
    336700   324.97583     -218758.61      0             -218281.96     -581.01649    
    336800   324.70765     -218755.75      0             -218279.5      -239.32062    
    336900   326.18773     -218747.64      0             -218269.21      63.063275    
    337000   327.68215     -218750.13      0             -218269.52      460.08091    
    337100   323.42071     -218748.85      0             -218274.48      30.249583    
    337200   320.71694     -218748.19      0             -218277.79     -196.41257    
    337300   322.0613      -218750.65      0             -218278.28     -1064.7427    
    337400   324.80543     -218747.74      0             -218271.34     -834.47591    
    337500   325.2898      -218743.4       0             -218266.3      -217.74034    
    337600   328.2851      -218750.01      0             -218268.51      2.9673409    
    337700   326.07069     -218752.37      0             -218274.11     -109.59103    
    337800   324.36672     -218752.71      0             -218276.96     -220.67414    
    337900   322.32134     -218748.62      0             -218275.87     -589.85488    
    338000   327.29464     -218753.76      0             -218273.71     -1446.9558    
    338100   329.3038      -218754.49      0             -218271.5      -564.86305    
    338200   326.22069     -218747.28      0             -218268.81     -835.84603    
    338300   325.86551     -218745.12      0             -218267.17     -817.17833    
    338400   322.70655     -218745.16      0             -218271.84      68.02723     
    338500   327.03681     -218757.47      0             -218277.8      -1095.0985    
    338600   322.44088     -218751.77      0             -218278.84     -353.64011    
    338700   325.29135     -218749.43      0             -218272.32     -234.96061    
    338800   325.69813     -218741.72      0             -218264.01     -576.1232     
    338900   330.3414      -218750.7       0             -218266.18     -234.41747    
    339000   322.05854     -218745.55      0             -218273.18      402.7343     
    339100   323.67966     -218750.64      0             -218275.89     -391.08123    
    339200   327.45869     -218755.21      0             -218274.93     -107.57239    
    339300   325.41618     -218750.75      0             -218273.46     -393.57885    
    339400   327.08875     -218747.93      0             -218268.18     -273.98372    
    339500   326.4288      -218741.96      0             -218263.18      318.4364     
    339600   325.58048     -218746.66      0             -218269.12     -444.14853    
    339700   320.12361     -218745.6       0             -218276.07     -1033.3013    
    339800   323.82711     -218750.97      0             -218276.01     -226.81044    
    339900   325.00487     -218750.12      0             -218273.43     -460.58463    
    340000   325.4398      -218744.81      0             -218267.48     -1802.7654    
    340100   327.21019     -218740.79      0             -218260.87     -155.67692    
    340200   330.04209     -218748.94      0             -218264.87     -759.84311    
    340300   323.80921     -218747.61      0             -218272.67     -1741.2024    
    340400   325.0105      -218751.12      0             -218274.42     -1963.1266    
    340500   323.2315      -218748.02      0             -218273.93     -1337.3424    
    340600   324.51007     -218749.11      0             -218273.15     -1785.2892    
    340700   325.02408     -218749.69      0             -218272.98     -1162.2179    
    340800   326.83398     -218751.78      0             -218272.41      237.10046    
    340900   322.18695     -218746.3       0             -218273.75     -900.74849    
    341000   324.08948     -218752.23      0             -218276.88     -503.43177    
    341100   322.50416     -218751.65      0             -218278.62      165.7152     
    341200   325.08144     -218752.45      0             -218275.65     -1084.9907    
    341300   326.8288      -218747.34      0             -218267.98     -923.51809    
    341400   326.22995     -218745.95      0             -218267.46      218.4311     
    341500   319.78504     -218742.58      0             -218273.55     -246.19058    
    341600   327.38999     -218758.87      0             -218278.69     -842.6035     
    341700   325.40226     -218756.42      0             -218279.15     -62.414967    
    341800   324.86389     -218753.6       0             -218277.11     -1391.4236    
    341900   326.59814     -218752.36      0             -218273.33     -14.375822    
    342000   325.02002     -218746.16      0             -218269.45     -734.86055    
    342100   328.33087     -218749.05      0             -218267.48      966.88136    
    342200   323.65384     -218748.42      0             -218273.72      546.30331    
    342300   324.98499     -218756.77      0             -218280.11      214.40344    
    342400   323.07099     -218752.64      0             -218278.78     -250.63999    
    342500   327.04778     -218751.52      0             -218271.83     -969.15824    
    342600   324.6195      -218745.89      0             -218269.76     -218.79528    
    342700   326.15946     -218749.32      0             -218270.94     -1391.9725    
    342800   326.80097     -218750.91      0             -218271.58     -875.44867    
    342900   318.77836     -218744.77      0             -218277.21     -495.51888    
    343000   324.77389     -218760.69      0             -218284.34      431.12191    
    343100   321.99151     -218756.66      0             -218284.39     -597.01114    
    343200   325.26321     -218749.68      0             -218272.62     -157.49018    
    343300   326.73621     -218749.67      0             -218270.44      88.962748    
    343400   324.48054     -218748.48      0             -218272.56      228.36993    
    343500   322.71688     -218749.9       0             -218276.57      246.7529     
    343600   324.25207     -218754.54      0             -218278.96     -194.48721    
    343700   323.44782     -218751.78      0             -218277.37     -936.43318    
    343800   324.00159     -218744.56      0             -218269.34     -1649.4707    
    343900   328.8529      -218748.75      0             -218266.42      442.20002    
    344000   326.40391     -218749.57      0             -218270.83     -229.33669    
    344100   323.79756     -218753.57      0             -218278.65     -913.47561    
    344200   323.51138     -218752.81      0             -218278.31     -2148.6076    
    344300   322.84149     -218749.5       0             -218275.99     -861.51701    
    344400   324.08465     -218747         0             -218271.66      325.24061    
    344500   329.23652     -218749.99      0             -218267.09     -400.44574    
    344600   327.7616      -218746.11      0             -218265.37     -769.4787     
    344700   327.18409     -218752.88      0             -218272.99     -914.97488    
    344800   320.90508     -218749.28      0             -218278.6      -514.56751    
    344900   325.5853      -218755.09      0             -218277.55     -661.41516    
    345000   323.55135     -218746.26      0             -218271.7      -530.43282    
    345100   328.39844     -218747.82      0             -218266.16     -331.62612    
    345200   326.51863     -218747.28      0             -218268.37      987.6316     
    345300   325.53045     -218757.3       0             -218279.84     -263.09199    
    345400   323.42175     -218754.59      0             -218280.22     -770.11443    
    345500   323.36113     -218749.76      0             -218275.49     -790.02279    
    345600   327.84632     -218749.92      0             -218269.06     -647.23284    
    345700   327.37943     -218748.33      0             -218268.16      186.45899    
    345800   324.43123     -218746.17      0             -218270.32      134.18373    
    345900   327.1218      -218751.59      0             -218271.8       75.276891    
    346000   325.03815     -218750.02      0             -218273.28     -457.56928    
    346100   325.8124      -218753         0             -218275.13     -93.117543    
    346200   322.11707     -218749.65      0             -218277.2       628.61924    
    346300   326.08449     -218757.55      0             -218279.28      959.98476    
    346400   324.35062     -218752.67      0             -218276.94      883.73456    
    346500   324.48087     -218745.84      0             -218269.92     -568.83823    
    346600   324.27549     -218742.99      0             -218267.37     -1045.2263    
    346700   324.97226     -218747.94      0             -218271.3      -1348.5064    
    346800   324.12543     -218756.96      0             -218281.56     -356.77234    
    346900   322.43254     -218753.52      0             -218280.6      -274.02922    
    347000   324.35701     -218751.12      0             -218275.38     -656.30446    
    347100   324.46227     -218747.37      0             -218271.48      103.97486    
    347200   327.87717     -218751.27      0             -218270.36     -557.59078    
    347300   325.28405     -218750.52      0             -218273.42     -385.42311    
    347400   321.51506     -218756.41      0             -218284.84      1025.4578    
    347500   322.11371     -218757.5       0             -218285.05      367.63567    
    347600   324.555       -218754.37      0             -218278.34      466.99112    
    347700   327.3729      -218754.27      0             -218274.11     -144.65378    
    347800   323.55669     -218747.4       0             -218272.83     -310.91196    
    347900   324.6558      -218748.07      0             -218271.9      -8.4331301    
    348000   324.37904     -218746.07      0             -218270.3      -207.92169    
    348100   328.64516     -218752.45      0             -218270.42     -864.31653    
    348200   328.24086     -218754.83      0             -218273.39     -136.27211    
    348300   322.17873     -218752.18      0             -218279.63      107.97155    
    348400   319.78422     -218750.08      0             -218281.05     -1166.2655    
    348500   325.92446     -218749.74      0             -218271.71     -336.47585    
    348600   327.22678     -218748.19      0             -218268.24      1041.3504    
    348700   324.08635     -218746.38      0             -218271.04      810.45493    
    348800   327.37987     -218756.42      0             -218276.25     -280.3971     
    348900   322.76008     -218753.08      0             -218279.68     -897.57041    
    349000   322.68012     -218750.99      0             -218277.71      14.938142    
    349100   328.44104     -218747.51      0             -218265.78     -467.87271    
    349200   328.25238     -218747.09      0             -218265.63      446.89602    
    349300   323.21296     -218746.94      0             -218272.88     -178.13735    
    349400   324.14728     -218752.66      0             -218277.23     -105.48985    
    349500   324.35102     -218754.16      0             -218278.43      777.53719    
    349600   326.95808     -218752.48      0             -218272.93     -170.96412    
    349700   327.62439     -218744.39      0             -218263.86     -876.27306    
    349800   329.29376     -218748.21      0             -218265.23      176.79044    
    349900   329.05172     -218754.03      0             -218271.4      -2117.3434    
    350000   323.95612     -218749.57      0             -218274.42     -1177.5138    
    350100   329.04287     -218757.9       0             -218275.29     -1099.0539    
    350200   326.30985     -218754.54      0             -218275.94      171.77918    
    350300   323.97722     -218748.83      0             -218273.65      721.11506    
    350400   326.46478     -218745.8       0             -218266.97     -616.5777     
    350500   328.12228     -218747.46      0             -218266.2      -434.97518    
    350600   324.17272     -218748.98      0             -218273.51     -178.07485    
    350700   325.24213     -218754.85      0             -218277.81     -409.47478    
    350800   324.11357     -218752.67      0             -218277.29      258.4645     
    350900   322.60291     -218748.13      0             -218274.96     -1233.7432    
    351000   325.46196     -218749.79      0             -218272.43     -907.75011    
    351100   323.27289     -218746.03      0             -218271.88     -1650.3741    
    351200   327.64439     -218753.34      0             -218272.78     -694.64573    
    351300   324.2231      -218750.21      0             -218274.67      65.65987     
    351400   325.08093     -218756.19      0             -218279.39      473.29986    
    351500   324.48835     -218760.25      0             -218284.32      264.38798    
    351600   323.33162     -218755.78      0             -218281.54     -346.87889    
    351700   324.00828     -218747.25      0             -218272.02      118.26977    
    351800   325.02153     -218747.39      0             -218270.68     -325.1016     
    351900   326.13107     -218751.22      0             -218272.88     -293.89328    
    352000   322.61691     -218750.86      0             -218277.67     -607.33674    
    352100   320.42386     -218750.33      0             -218280.36     -1558.3369    
    352200   321.21768     -218750.28      0             -218279.15     -1321.3794    
    352300   329.62291     -218754.16      0             -218270.7       393.94761    
    352400   323.39175     -218743.08      0             -218268.76     -56.278295    
    352500   327.49903     -218751.7       0             -218271.35     -1004.3241    
    352600   323.62483     -218754.69      0             -218280.03     -296.25643    
    352700   318.60549     -218749.35      0             -218282.04      839.86993    
    352800   321.63821     -218750.13      0             -218278.38     -767.41444    
    352900   322.56347     -218748.35      0             -218275.24     -672.61345    
    353000   326.87152     -218750.43      0             -218271         194.86453    
    353100   326.83731     -218750.64      0             -218271.27     -311.74132    
    353200   325.50238     -218750.31      0             -218272.89      284.32982    
    353300   326.88506     -218753.54      0             -218274.09      10.478266    
    353400   325.89676     -218752.1       0             -218274.1       463.21995    
    353500   321.56095     -218745.48      0             -218273.85     -241.41516    
    353600   325.11401     -218748.73      0             -218271.88      497.82943    
    353700   326.48671     -218749.55      0             -218270.69     -218.2861     
    353800   325.17865     -218748.15      0             -218271.21     -826.97577    
    353900   326.08503     -218755         0             -218276.72     -2073.3174    
    354000   323.30167     -218754.97      0             -218280.78     -1257.0155    
    354100   320.53259     -218747.67      0             -218277.54     -1270.3708    
    354200   325.40927     -218745.36      0             -218268.08     -559.5916     
    354300   328.27761     -218749.1       0             -218267.61      402.06803    
    354400   323.78579     -218746.53      0             -218271.63     -897.06597    
    354500   321.74119     -218747.7       0             -218275.8      -491.28293    
    354600   324.56807     -218752.83      0             -218276.78     -95.911705    
    354700   328.69217     -218756.13      0             -218274.03     -757.61417    
    354800   330.61774     -218747.53      0             -218262.6      -333.58554    
    354900   325.51276     -218741.9       0             -218264.47     -1684.6791    
    355000   322.97493     -218746.09      0             -218272.38     -937.71253    
    355100   321.74834     -218747.93      0             -218276.02     -773.75998    
    355200   322.22539     -218750.17      0             -218277.56     -1446.4507    
    355300   329.11979     -218756.28      0             -218273.55     -465.23232    
    355400   323.05915     -218738.9       0             -218265.07      177.83735    
    355500   327.70277     -218744.05      0             -218263.4      -317.82097    
    355600   326.33775     -218748.62      0             -218269.98     -437.08756    
    355700   327.06687     -218752.49      0             -218272.78     -715.10391    
    355800   326.66619     -218753.76      0             -218274.63     -1008.578     
    355900   325.56455     -218753.78      0             -218276.27     -650.42844    
    356000   324.06727     -218754.23      0             -218278.92     -464.70723    
    356100   324.43531     -218756.96      0             -218281.1       235.12852    
    356200   324.49665     -218752.4       0             -218276.46      184.88946    
    356300   325.03249     -218746.51      0             -218269.78      384.89434    
    356400   326.16908     -218747.65      0             -218269.25     -334.37642    
    356500   322.49938     -218747.65      0             -218274.64     -501.61658    
    356600   322.30516     -218756.48      0             -218283.75     -107.82014    
    356700   321.91055     -218757.35      0             -218285.2      -874.54539    
    356800   324.76629     -218757.88      0             -218281.54      364.81976    
    356900   323.00906     -218750.19      0             -218276.43     -1119.0699    
    357000   326.02751     -218748.02      0             -218269.83     -322.16565    
    357100   326.14661     -218746.77      0             -218268.41     -1079.4094    
    357200   324.85717     -218750.21      0             -218273.73     -959.1659     
    357300   321.65707     -218753.52      0             -218281.74     -279.94997    
    357400   323.77534     -218756.36      0             -218281.47     -841.63266    
    357500   323.26176     -218753.04      0             -218278.91     -160.94431    
    357600   324.5876      -218750.26      0             -218274.18      31.452276    
    357700   327.58186     -218750.42      0             -218269.95      485.49822    
    357800   327.98054     -218750.74      0             -218269.68      928.18277    
    357900   324.03423     -218752.67      0             -218277.4       370.75084    
    358000   322.09668     -218755.5       0             -218283.07     -208.84026    
    358100   322.88788     -218754.72      0             -218281.13     -628.20502    
    358200   323.25155     -218750.16      0             -218276.04     -628.92398    
    358300   327.24888     -218749.66      0             -218269.68     -472.15149    
    358400   328.63099     -218750.35      0             -218268.34     -909.53578    
    358500   323.31216     -218747.16      0             -218272.95     -685.31778    
    358600   322.14677     -218754.32      0             -218281.82     -847.85061    
    358700   323.86753     -218757         0             -218281.98      672.36793    
    358800   324.78616     -218752.95      0             -218276.58      370.14206    
    358900   325.45232     -218750.62      0             -218273.27      515.58061    
    359000   325.22525     -218750.49      0             -218273.48      259.9698     
    359100   325.83345     -218753.01      0             -218275.1       106.39312    
    359200   321.57629     -218752.78      0             -218281.12     -570.67648    
    359300   319.75274     -218755.86      0             -218286.87     -722.32867    
    359400   322.22226     -218753.33      0             -218280.72     -1339.3059    
    359500   323.79415     -218750.31      0             -218275.4      -189.83461    
    359600   326.3779      -218751.56      0             -218272.86      1001.0144    
    359700   324.81488     -218747.56      0             -218271.15      270.25095    
    359800   327.59476     -218751.96      0             -218271.47     -272.40612    
    359900   325.18275     -218752.41      0             -218275.46     -193.66115    
    360000   322.58171     -218753.81      0             -218280.67     -508.34786    
    360100   324.92424     -218755.76      0             -218279.19     -897.00515    
    360200   325.68638     -218748.29      0             -218270.6      -608.74067    
    360300   328.19895     -218750         0             -218268.62      475.63134    
    360400   330.9157      -218756.34      0             -218270.98      18.033172    
    360500   322.25107     -218748.6       0             -218275.95      424.56461    
    360600   323.83044     -218752.28      0             -218277.31      197.14474    
    360700   324.37398     -218753.02      0             -218277.26      688.94827    
    360800   326.3247      -218754.55      0             -218275.92      941.15489    
    360900   324.99487     -218751.38      0             -218274.7       285.49242    
    361000   324.09622     -218750.76      0             -218275.4      -915.00739    
    361100   323.05535     -218753.89      0             -218280.06      141.01788    
    361200   321.84221     -218754.16      0             -218282.11      342.747      
    361300   325.21162     -218754.06      0             -218277.07      628.35713    
    361400   326.6121      -218750.86      0             -218271.81     -1059.0956    
    361500   328.78367     -218752.12      0             -218269.89      37.981024    
    361600   324.45552     -218752.19      0             -218276.31     -218.63031    
    361700   320.03636     -218753.61      0             -218284.21     -1211.7563    
    361800   320.79568     -218753.24      0             -218282.72     -403.98346    
    361900   322.64068     -218748.77      0             -218275.55     -678.54348    
    362000   323.2396      -218747.18      0             -218273.08     -575.73654    
    362100   325.16661     -218750.82      0             -218273.89      968.47916    
    362200   326.0222      -218754.79      0             -218276.61      717.34682    
    362300   321.77474     -218757.98      0             -218286.03      404.0566     
    362400   322.24642     -218759.88      0             -218287.24      132.56327    
    362500   320.78112     -218751.84      0             -218281.35      489.19309    
    362600   324.95126     -218753.94      0             -218277.33     -271.33901    
    362700   324.58011     -218751.31      0             -218275.25     -532.42812    
    362800   323.71646     -218748.99      0             -218274.19     -1591.828     
    362900   324.31328     -218747.71      0             -218272.04     -875.60213    
    363000   324.70048     -218746.64      0             -218270.4      -822.76882    
    363100   325.13444     -218748.64      0             -218271.76     -542.79374    
    363200   320.71806     -218749.86      0             -218279.46      297.27842    
    363300   320.55555     -218752.64      0             -218282.47     -208.25924    
    363400   323.07529     -218751.03      0             -218277.17     -251.76414    
    363500   324.91459     -218749.86      0             -218273.3      -437.59682    
    363600   327.40755     -218753.52      0             -218273.31     -351.68935    
    363700   326.15708     -218753.36      0             -218274.99     -218.90624    
    363800   325.42701     -218755.27      0             -218277.96     -110.12886    
    363900   324.59196     -218758.64      0             -218282.56     -832.92429    
    364000   323.72524     -218761.5       0             -218286.68     -1249.1855    
    364100   322.53687     -218753.31      0             -218280.24      43.204438    
    364200   325.64556     -218750.65      0             -218273.02     -1053.4688    
    364300   328.08153     -218752.66      0             -218271.45     -847.21672    
    364400   328.15801     -218756.32      0             -218275        -577.3855     
    364500   322.27026     -218753.3       0             -218280.63     -1212.5281    
    364600   320.85192     -218755.33      0             -218284.73     -82.252555    
    364700   319.34482     -218752.89      0             -218284.5      -172.93631    
    364800   322.50276     -218748.43      0             -218275.41     -1055.4895    
    364900   323.56527     -218745.97      0             -218271.39     -505.02164    
    365000   327.66035     -218752.73      0             -218272.14      854.88237    
    365100   320.96523     -218750.3       0             -218279.54     -268.2847     
    365200   322.4162      -218756.09      0             -218283.2       37.403475    
    365300   319.88764     -218750.02      0             -218280.83      320.11655    
    365400   325.21534     -218755.4       0             -218278.4       432.89683    
    365500   328.11699     -218756.38      0             -218275.13     -175.90759    
    365600   326.23625     -218751.1       0             -218272.61     -1402.1494    
    365700   328.5561      -218752.31      0             -218270.42     -1855.2206    
    365800   327.32328     -218749.06      0             -218268.97     -810.35592    
    365900   324.8728      -218749.26      0             -218272.77     -935.96613    
    366000   325.31965     -218755.82      0             -218278.67     -857.0359     
    366100   324.35974     -218757.8       0             -218282.06      711.00816    
    366200   323.72614     -218754.18      0             -218279.36     -350.02833    
    366300   326.50385     -218748         0             -218269.12     -689.34071    
    366400   327.79357     -218750.05      0             -218269.27     -346.26962    
    366500   327.65853     -218755.88      0             -218275.3       608.90146    
    366600   324.30179     -218753.95      0             -218278.29     -196.96587    
    366700   323.92225     -218753.13      0             -218278.03      258.54786    
    366800   325.64791     -218752.68      0             -218275.05      916.10985    
    366900   326.22241     -218741.46      0             -218262.99     -33.089375    
    367000   329.45028     -218746.83      0             -218263.62     -216.30055    
    367100   322.419       -218744         0             -218271.1      -123.61924    
    367200   322.37866     -218748.92      0             -218276.09     -1022.4123    
    367300   324.65106     -218755.05      0             -218278.88     -583.9856     
    367400   326.52099     -218755.33      0             -218276.42     -243.34908    
    367500   325.50186     -218745.99      0             -218268.57     -351.83142    
    367600   327.86314     -218745.34      0             -218264.46     -233.78765    
    367700   329.326       -218756.34      0             -218273.31     -22.668578    
    367800   326.41787     -218758.08      0             -218279.32      815.2538     
    367900   321.49246     -218751.93      0             -218280.39      816.92645    
    368000   325.00693     -218753.06      0             -218276.37     -688.07333    
    368005   324.97247     -218752.6       0             -218275.96     -678.34376    
Loop time of 3569.67 on 8 procs for 345000 steps with 11348 atoms

Performance: 8.350 ns/day, 2.874 hours/ns, 96.647 timesteps/s
96.1% CPU use with 8 MPI tasks x 1 OpenMP threads

MPI task timing breakdown:
Section |  min time  |  avg time  |  max time  |%varavg| %total
---------------------------------------------------------------
Pair    | 1138.7     | 1180.3     | 1212.6     |  67.6 | 33.07
Kspace  | 2036.7     | 2072.6     | 2112.2     |  55.7 | 58.06
Neigh   | 134.27     | 138.69     | 144.23     |  23.7 |  3.89
Comm    | 105.06     | 114.9      | 121.11     |  46.2 |  3.22
Output  | 13.667     | 14.077     | 14.143     |   4.1 |  0.39
Modify  | 35.607     | 35.92      | 36.67      |   5.6 |  1.01
Other   |            | 13.19      |            |       |  0.37

Nlocal:         1418.5 ave        1445 max        1397 min
Histogram: 2 0 1 1 0 2 0 0 1 1
Nghost:         3908.5 ave        3922 max        3888 min
Histogram: 2 0 1 0 0 0 0 1 2 2
Neighs:         105274 ave      109458 max      102200 min
Histogram: 2 0 1 1 1 1 1 0 0 1

Total # of neighbors = 842193
Ave neighs/atom = 74.215104
Neighbor list builds = 52648
Dangerous builds = 0

undump              1
unfix               1
unfix               RDF
uncompute           myRDF

print "Temp = ${Tmp}"
Temp = 325

variable Tmp delete
next a
jump SELF loop_start
print "loop body"
loop body
variable Tmp equal (${a}-1)*5+300
variable Tmp equal (7-1)*5+300

reset_timestep 0

velocity	all create 0.00001 87287

pair_style buck/coul/long 8.0
pair_coeff 1 1 0.0        1.0      0.0
pair_coeff 2 2 2029.2204  0.343645 192.58000
pair_coeff 3 3 0.0        1.0      0.0
pair_coeff 4 4 0.0        1.0      0.0
pair_coeff 1 2 41051.9380 0.151160 0.0000
pair_coeff 1 3 0.0        1.0      0.0
pair_coeff 1 4 0.0        1.0      0.0
pair_coeff 2 3 26655.4720 0.181968 86.5860
pair_coeff 2 4 17943.3840 0.226627 127.6500
pair_coeff 3 4 0.0        1.0      0.0
kspace_style pppm 1.0e-4

neighbor	0.3 bin
neigh_modify	every 1 delay 0 check yes

log log.lammps00_${Tmp}
log log.lammps00_330
