
timestep 0.001

min_style cg
minimize 1.0e-4 1.0e-6 1000 10000
PPPM initialization ...
WARNING: System is not charge neutral, net charge = -578.4 (src/kspace.cpp:327)
  using 12-bit tables for long-range coulomb (src/kspace.cpp:342)
  G vector (1/distance) = 0.36922542
  grid = 54 48 64
  stencil order = 5
  estimated absolute RMS force accuracy = 0.0017685881
  estimated relative force accuracy = 0.00012282164
  using double precision FFTW3
  3d grid and FFT values/proc = 34336 20736
Generated 0 of 6 mixed pair_coeff terms from geometric mixing rule
Neighbor list info ...
  update every 1 steps, delay 0 steps, check yes
  max neighbors/atom: 2000, page size: 100000
  master list distance cutoff = 8.3
  ghost atom cutoff = 8.3
  binsize = 4.15, bins = 14 12 18
  1 neighbor lists, perpetual/occasional/extra = 1 0 0
  (1) pair buck/coul/long, perpetual
      attributes: half, newton on
      pair build: half/bin/atomonly/newton
      stencil: half/bin/3d
      bin: standard
Per MPI rank memory allocation (min/avg/max) = 8.306 | 8.306 | 8.307 Mbytes
   Step          Temp          E_pair         E_mol          TotEng         Press     
         0   1e-05         -218749.15      0             -218749.15     -1935.3807    
         6   1e-05         -219178.67      0             -219178.67     -2007.5149    
Loop time of 0.140976 on 8 procs for 6 steps with 11348 atoms

98.2% CPU use with 8 MPI tasks x 1 OpenMP threads

Minimization stats:
  Stopping criterion = energy tolerance
  Energy initial, next-to-last, final = 
     -218749.153332271    -219160.7541964  -219178.667879857
  Force two-norm initial, final = 196.28663 38.900508
  Force max component initial, final = 6.3721889 1.6879461
  Final line search alpha, max atom move = 0.075655099 0.12770173
  Iterations, force evaluations = 6 12

MPI task timing breakdown:
Section |  min time  |  avg time  |  max time  |%varavg| %total
---------------------------------------------------------------
Pair    | 0.042897   | 0.053788   | 0.063959   |   3.2 | 38.15
Kspace  | 0.068389   | 0.078658   | 0.090185   |   2.8 | 55.80
Neigh   | 0.0043187  | 0.0050714  | 0.0057676  |   0.6 |  3.60
Comm    | 0.0021701  | 0.0022209  | 0.0022762  |   0.1 |  1.58
Output  | 0          | 0          | 0          |   0.0 |  0.00
Modify  | 0          | 0          | 0          |   0.0 |  0.00
Other   |            | 0.001238   |            |       |  0.88

Nlocal:         1418.5 ave        1446 max        1401 min
Histogram: 2 1 1 1 1 0 0 0 0 2
Nghost:           3921 ave        3935 max        3902 min
Histogram: 2 0 0 1 0 0 1 0 2 2
Neighs:         105418 ave      110482 max      102958 min
Histogram: 2 0 3 1 0 1 0 0 0 1

Total # of neighbors = 843340
Ave neighs/atom = 74.316179
Neighbor list builds = 2
Dangerous builds = 0

fix                 1 all npt temp ${Tmp} ${Tmp} 0.1 iso 1.0 1.0 1.0
fix                 1 all npt temp 340 ${Tmp} 0.1 iso 1.0 1.0 1.0
fix                 1 all npt temp 340 340 0.1 iso 1.0 1.0 1.0
dump                1 all atom 100 dump00_${Tmp}.adp
dump                1 all atom 100 dump00_340.adp
thermo              100
run                 23000
PPPM initialization ...
  using 12-bit tables for long-range coulomb (src/kspace.cpp:342)
  G vector (1/distance) = 0.36922542
  grid = 54 48 64
  stencil order = 5
  estimated absolute RMS force accuracy = 0.0017685881
  estimated relative force accuracy = 0.00012282164
  using double precision FFTW3
  3d grid and FFT values/proc = 34336 20736
Generated 0 of 6 mixed pair_coeff terms from geometric mixing rule
Per MPI rank memory allocation (min/avg/max) = 7.181 | 7.181 | 7.182 Mbytes
   Step          Temp          E_pair         E_mol          TotEng         Press          Volume    
         6   1e-05         -219178.67      0             -219178.67     -2007.5149      189560.63    
       100   31.202111     -219220.58      0             -219174.82      123.74304      188712.87    
       200   31.87655      -219208.93      0             -219162.17     -439.30237      188750.96    
       300   37.413412     -219201.59      0             -219146.72     -341.4098       188788.36    
       400   43.900106     -219192.81      0             -219128.43      468.62531      188542.21    
       500   52.512859     -219180.58      0             -219103.55     -633.83788      188860.52    
       600   61.44471      -219165.64      0             -219075.51      466.72586      188588.38    
       700   72.735783     -219147.94      0             -219041.26      323.84161      188410.77    
       800   87.281342     -219126.45      0             -218998.43      487.71848      188675.1     
       900   104.94977     -219100.98      0             -218947.04     -29.086525      188948.59    
      1000   124.16839     -219070.96      0             -218888.84      528.48476      188604.66    
      1100   148.4055      -219036.42      0             -218818.75      530.77452      188678.02    
      1200   175.78927     -218995.88      0             -218738.05     -29.23906       188785.34    
      1300   202.83996     -218945.76      0             -218648.25      1032.7803      188704.43    
      1400   240.80991     -218900.47      0             -218547.27     -605.14013      189564.28    
      1500   271.58454     -218843.96      0             -218445.62      746.13649      189428.25    
      1600   304.22881     -218791.44      0             -218345.23     -515.93234      189450.79    
      1700   333.70221     -218747.28      0             -218257.83      1285.4544      189456.98    
      1800   352.85269     -218714.53      0             -218197        -848.51541      190166.81    
      1900   352.97297     -218703.48      0             -218185.77     -15.719928      189879.34    
      2000   346.97077     -218728.17      0             -218219.26     -249.38451      189733.31    
      2100   332.58112     -218752.38      0             -218264.58     -961.8576       189702.51    
      2200   326.58186     -218763.62      0             -218284.62      655.02825      189264.76    
      2300   333.67638     -218754.69      0             -218265.28     -928.27124      189418.07    
      2400   344.87339     -218736.8       0             -218230.97      1293.4804      189311.81    
      2500   348.07326     -218719.45      0             -218208.93     -111.39527      189471.61    
      2600   347.84473     -218729         0             -218218.81     -678.29024      189175.74    
      2700   335.60018     -218740.37      0             -218248.14     -362.89554      189037.76    
      2800   332.90173     -218757.98      0             -218269.71     -493.00112      189189.33    
      2900   330.61966     -218756.41      0             -218271.48      967.5401       189112.28    
      3000   340.61921     -218750.08      0             -218250.48      34.40837       189226.95    
      3100   342.1022      -218729.73      0             -218227.96     -220.9675       189292.65    
      3200   347.6925      -218731.54      0             -218221.58      716.54624      189248.82    
      3300   342.56739     -218736.85      0             -218234.4       204.53009      189383.92    
      3400   338.05546     -218751.48      0             -218255.65     -411.32481      189617.22    
      3500   334.91791     -218758.67      0             -218267.45      1208.7289      189412.72    
      3600   334.53691     -218750.76      0             -218260.09     -236.77784      189533.48    
      3700   342.18691     -218741.96      0             -218240.07     -421.61194      189515.98    
      3800   350.33602     -218738.37      0             -218224.53     -158.72134      189450.42    
      3900   347.17634     -218738.02      0             -218228.82      605.80812      189552.96    
      4000   335.99676     -218741.83      0             -218249.02     -1286.7547      189860.01    
      4100   334.5567      -218756.57      0             -218265.87      105.70618      189581.29    
      4200   329.6632      -218749.35      0             -218265.83      216.21581      189278.55    
      4300   340.57368     -218747.41      0             -218247.88      219.33704      189237.2     
      4400   346.08726     -218737.43      0             -218229.82     -52.204648      189497.27    
      4500   346.6918      -218736.6       0             -218228.11      819.49011      189164.86    
      4600   342.36059     -218744.42      0             -218242.28     -496.15606      189076.46    
      4700   336.052       -218751.59      0             -218258.69     -403.83925      189121.45    
      4800   334.86592     -218754.8       0             -218263.65     -1452.9187      189274.79    
      4900   338.06094     -218750.16      0             -218254.32     -350.65982      189110.23    
      5000   343.37443     -218742.21      0             -218238.57      393.76183      189055.8     
      5100   342.90258     -218733.95      0             -218231.01      251.20468      189191.67    
      5200   342.86849     -218739.9       0             -218237.01     -529.45061      189495.25    
      5300   338.11922     -218749.67      0             -218253.74     -261.56215      189334.48    
      5400   333.9872      -218754.18      0             -218264.32     -761.56491      189463.04    
      5500   333.33312     -218749.14      0             -218260.24      23.538845      189647.43    
      5600   342.45904     -218747.27      0             -218244.98     -174.27134      189622.61    
      5700   344.4801      -218737.96      0             -218232.7       85.384715      189318.25    
      5800   343.47559     -218737.09      0             -218233.3       159.02988      189378.81    
      5900   339.85201     -218743.08      0             -218244.61     -535.02119      189518.44    
      6000   335.36192     -218753.23      0             -218261.35      575.43329      189250.64    
      6100   330.36024     -218750.26      0             -218265.71      57.532772      189340.04    
      6200   336.74493     -218747.03      0             -218253.12     -134.18465      189152.09    
      6300   342.78906     -218737.97      0             -218235.2       411.99547      189123.51    
      6400   346.53275     -218738.26      0             -218230        -26.380714      189258.56    
      6500   342.92293     -218745.84      0             -218242.87      63.005053      189358.76    
      6600   336.56539     -218752.86      0             -218259.22      90.329383      189341.99    
      6700   337.20572     -218757.9       0             -218263.31     -307.09539      189386.78    
      6800   338.68209     -218750.56      0             -218253.81      903.19426      189288.66    
      6900   340.84121     -218739.38      0             -218239.46      558.23952      189441.12    
      7000   345.28181     -218739.15      0             -218232.72      542.84379      189529.67    
      7100   345.15666     -218748         0             -218241.75      130.1202       189593.69    
      7200   339.59049     -218753.85      0             -218255.77      223.82257      189404.18    
      7300   337.76378     -218756.25      0             -218260.85     -683.66772      189402.22    
      7400   335.48688     -218747.29      0             -218255.23     -457.56926      189598.58    
      7500   344.68496     -218750.38      0             -218244.83     -850.55858      189541.93    
      7600   342.45505     -218738.28      0             -218236         48.952363      189688.47    
      7700   339.73498     -218736.36      0             -218238.07      763.65585      189457.5     
      7800   340.45205     -218747.88      0             -218248.54     -602.16771      189431.01    
      7900   337.98785     -218755.98      0             -218260.25      609.39101      189191.61    
      8000   336.36869     -218755.14      0             -218261.78      17.075116      189254.59    
      8100   335.50727     -218745.78      0             -218253.69     -48.734188      189223.26    
      8200   339.55899     -218739.06      0             -218241.02     -141.24151      189205.75    
      8300   342.14822     -218736.48      0             -218234.65     -214.75971      189292.69    
      8400   344.94558     -218746.43      0             -218240.5       1184.2318      189100.66    
      8500   341.10467     -218753.96      0             -218253.66     -804.73798      189409.46    
      8600   335.27372     -218756.87      0             -218265.11      318.83252      189202.27    
      8700   333.53956     -218750.79      0             -218261.58      20.944951      189386.23    
      8800   338.3239      -218743.87      0             -218247.64     -300.59489      189300.09    
      8900   341.96504     -218736.69      0             -218235.12      812.05533      189368.53    
      9000   341.8749      -218737.35      0             -218235.91      262.8759       189409.6     
      9100   341.26258     -218749.07      0             -218248.54     -807.93544      189529.19    
      9200   336.75351     -218755.37      0             -218261.45     -109.07293      189472.73    
      9300   335.64364     -218754.24      0             -218261.94     -21.372193      189427.59    
      9400   338.81154     -218746.51      0             -218249.57     -957.67395      189668.52    
      9500   347.26051     -218746.65      0             -218237.32     -18.876849      189517.45    
      9600   346.90293     -218744.32      0             -218235.51      1021.7833      189406.71    
      9700   338.68029     -218741.08      0             -218244.33     -821.15165      189632.31    
      9800   337.12014     -218751.62      0             -218257.16     -655.33859      189298.31    
      9900   333.64908     -218750.96      0             -218261.59      220.9395       189108.96    
     10000   339.11977     -218751.84      0             -218254.44     -79.58875       189078.87    
     10100   345.46397     -218751.1       0             -218244.4      -296.81949      189143       
     10200   340.64411     -218738.68      0             -218239.05      126.70351      189317.87    
     10300   341.41182     -218743.78      0             -218243.02      1006.2478      189237.5     
     10400   338.23881     -218749.63      0             -218253.53      231.85583      189315.88    
     10500   333.33756     -218750         0             -218261.09      1879.062       189250.62    
     10600   337.97984     -218752.39      0             -218256.67      1303.3855      189417.13    
     10700   337.6276      -218741.87      0             -218246.67      1100.1602      189451.15    
     10800   341.37973     -218739.21      0             -218238.51      422.69973      189480.63    
     10900   341.31045     -218739.37      0             -218238.76      514.45281      189422.5     
     11000   341.17795     -218748.35      0             -218247.94     -740.10138      189584.59    
     11100   337.80798     -218754.2       0             -218258.73     -273.2541       189649.42    
     11200   334.1799      -218751.1       0             -218260.96     -129.24201      189530.41    
     11300   337.90452     -218747.12      0             -218251.51     -776.20207      189716.9     
     11400   344.7022      -218746.25      0             -218240.67      837.99924      189171.64    
     11500   345.18259     -218741.99      0             -218235.71     -340.34466      189283.53    
     11600   343.07501     -218748.02      0             -218244.83     -643.01706      189225.27    
     11700   337.3005      -218752.97      0             -218258.25      320.08156      188927.56    
     11800   334.43511     -218752.39      0             -218261.86      192.77249      189197.98    
     11900   338.29951     -218751.65      0             -218255.46     -474.00041      189215.25    
     12000   340.28334     -218743.34      0             -218244.24     -1278.338       189230.16    
     12100   343.26442     -218741.29      0             -218237.82     -870.39694      189227.62    
     12200   341.47214     -218742.57      0             -218241.73     -1014.0274      189276.84    
     12300   336.54718     -218747.17      0             -218253.55     -475.92462      189180.51    
     12400   335.87001     -218752.81      0             -218260.18      397.70988      189274.03    
     12500   339.0699      -218754.53      0             -218257.21      159.11304      189370.55    
     12600   338.75656     -218745.32      0             -218248.46      8.1026832      189256.96    
     12700   346.41623     -218748.67      0             -218240.58      88.556427      189098.58    
     12800   343.56487     -218745.92      0             -218242.01     -186.65542      189287.27    
     12900   338.02608     -218745.59      0             -218249.8      -8.8876551      189233.65    
     13000   337.60942     -218751.92      0             -218256.75      177.36213      189441.35    
     13100   339.93769     -218755.87      0             -218257.27     -43.758933      189385.51    
     13200   337.26876     -218744.8       0             -218250.13     -418.6053       189492.51    
     13300   336.51564     -218737         0             -218243.42      488.45285      189304.32    
     13400   338.64845     -218739.18      0             -218242.48     -793.75994      189349.45    
     13500   340.1781      -218746.45      0             -218247.5       1037.3783      189255.5     
     13600   340.31008     -218753.23      0             -218254.09     -120.33661      189527.69    
     13700   339.27093     -218754.75      0             -218257.14      717.89517      189177.25    
     13800   335.83152     -218745.18      0             -218252.61      308.35873      189099.08    
     13900   344.20382     -218749.35      0             -218244.51     -140.65774      189154.9     
     14000   341.67311     -218743.98      0             -218242.84     -1122.9633      189222.48    
     14100   341.51659     -218748.02      0             -218247.11      449.60535      189200.25    
     14200   338.16657     -218748.5       0             -218252.51     -659.38175      189224.84    
     14300   339.55622     -218752.56      0             -218254.53     -1390.7293      189531.14    
     14400   337.19437     -218748.59      0             -218254.02      1135.3466      189159.03    
     14500   338.76986     -218745.13      0             -218248.25     -627.66277      189192.96    
     14600   341.28217     -218743.13      0             -218242.57     -1183.1314      189154.87    
     14700   340.66434     -218743.53      0             -218243.87      652.9028       188998.62    
     14800   338.251       -218745.23      0             -218249.11      673.05402      189191.04    
     14900   341.28866     -218755.61      0             -218255.04      183.15256      189312.11    
     15000   338.08793     -218752.9       0             -218257.02     -129.33987      189389.6     
     15100   340.70927     -218751.35      0             -218251.63     -40.730203      189448.69    
     15200   343.19062     -218745.47      0             -218242.1      -50.009511      189649.56    
     15300   343.43696     -218742.86      0             -218239.14     -642.55456      189778.73    
     15400   338.5917      -218742.62      0             -218246.01      780.62471      189448.07    
     15500   338.87697     -218747.98      0             -218250.95      865.47521      189656.14    
     15600   337.08779     -218749.5       0             -218255.09      1395.1472      189361.74    
     15700   340.15441     -218752.52      0             -218253.61      267.4897       189251.09    
     15800   341.97364     -218750.19      0             -218248.62     -433.62052      189303.41    
     15900   340.16114     -218744.85      0             -218245.93      969.47166      189117.71    
     16000   343.36306     -218749.78      0             -218246.17     -223.61235      189401.32    
     16100   345.05388     -218756.49      0             -218250.4       448.20818      189215.81    
     16200   339.75318     -218752.15      0             -218253.83     -134.39168      189211.51    
     16300   341.08601     -218753.47      0             -218253.19      594.67154      189098.17    
     16400   340.14875     -218748.5       0             -218249.6       806.36498      189108.55    
     16500   339.72854     -218745.89      0             -218247.61      1543.5578      188922.07    
     16600   342.33746     -218750.15      0             -218248.04      779.62692      189146.58    
     16700   341.2797      -218750.37      0             -218249.81      1094.465       189267.42    
     16800   340.44437     -218751.21      0             -218251.88      786.96599      189271.1     
     16900   335.02055     -218744.82      0             -218253.44      245.2888       189148.6     
     17000   341.97445     -218750.32      0             -218248.74     -558.49013      189537.82    
     17100   340.45453     -218745.45      0             -218246.1       667.40424      189222.62    
     17200   339.46228     -218742.94      0             -218245.04     -623.81805      189528.54    
     17300   341.46966     -218749.8       0             -218248.96      574.03019      189432.39    
     17400   337.2094      -218745.57      0             -218250.98      741.37806      189516.27    
     17500   338.86421     -218747.67      0             -218250.66      800.2321       189651.11    
     17600   338.78479     -218745.4       0             -218248.5       988.98095      189584.63    
     17700   342.47765     -218747.47      0             -218245.16      850.10705      189394.83    
     17800   341.95955     -218745.19      0             -218243.63      468.10165      189584.21    
     17900   339.71465     -218745.88      0             -218247.62      1234.0638      189223.02    
     18000   336.1814      -218744.78      0             -218251.7      -406.27696      189328.24    
     18100   338.32528     -218750.53      0             -218254.3       335.29928      189158.14    
     18200   339.12117     -218750.11      0             -218252.72     -445.62739      189219.15    
     18300   337.04797     -218743.32      0             -218248.97      328.02436      189046.45    
     18400   342.93443     -218748.63      0             -218245.65      326.62824      189103.07    
     18500   338.13433     -218742.22      0             -218246.27      506.08352      189320.68    
     18600   341.93787     -218751.04      0             -218249.52      1343.9911      189088.33    
     18700   339.86317     -218750.83      0             -218252.35      210.82341      189289.77    
     18800   337.03398     -218746.82      0             -218252.49     -378.88066      189430.21    
     18900   340.72554     -218750.57      0             -218250.83      1009.2095      188937.47    
     19000   339.49533     -218743.2       0             -218245.26      117.78285      189123.67    
     19100   343.98947     -218748.84      0             -218244.3      -38.860168      189490.4     
     19200   337.49405     -218744.78      0             -218249.77      382.07893      189442.3     
     19300   340.58592     -218752.36      0             -218252.81     -467.70131      189551.56    
     19400   337.52757     -218748.01      0             -218252.96      844.0425       189619.38    
     19500   342.01398     -218750.09      0             -218248.45     -1151.9624      189632.69    
     19600   338.76093     -218740.51      0             -218243.65     -1156.3283      189452.75    
     19700   339.88044     -218742.83      0             -218244.32     -800.77657      189445.37    
     19800   344.3647      -218753.23      0             -218248.14     -457.22146      189348.74    
     19900   337.5954      -218749.53      0             -218254.37     -613.32904      189208.01    
     20000   340.65094     -218753.87      0             -218254.23     -1689.6772      189311.72    
     20100   340.76831     -218751.97      0             -218252.16      582.95635      189091.56    
     20200   341.41962     -218747.39      0             -218246.62      497.32706      189285.37    
     20300   342.59424     -218746.51      0             -218244.02     -851.25746      189423.86    
     20400   337.99712     -218742.56      0             -218246.81     -33.634339      189202.96    
     20500   340.26533     -218750.2       0             -218251.13      620.47693      189196.44    
     20600   341.71603     -218754.3       0             -218253.11     -29.806399      189486.61    
     20700   339.13615     -218749.68      0             -218252.26     -239.97541      189458.01    
     20800   337.4231      -218742.71      0             -218247.81     -332.63553      189614.28    
     20900   340.09994     -218742.07      0             -218243.24     -545.96222      189773.89    
     21000   342.16022     -218747.34      0             -218245.48     -736.20923      189635.11    
     21100   342.22424     -218752.54      0             -218250.59      662.05643      189507.66    
     21200   337.23803     -218747.74      0             -218253.1       177.94396      189686.16    
     21300   340.43005     -218751.83      0             -218252.52     -1319.421       189766.07    
     21400   339.8014      -218747.74      0             -218249.35      267.55759      189515.68    
     21500   340.82287     -218743.89      0             -218244        -1211.8576      189825.66    
     21600   342.29186     -218747.14      0             -218245.09      465.93335      189278.98    
     21700   340.97059     -218748.86      0             -218248.75     -80.133299      189397.85    
     21800   340.63513     -218752.9       0             -218253.28     -1296.6328      189421.69    
     21900   340.61128     -218755.02      0             -218255.44     -928.92065      189222.16    
     22000   337.72832     -218747.26      0             -218251.91     -1582.6544      189378.76    
     22100   342.98164     -218748.94      0             -218245.88     -662.96366      189164.68    
     22200   340.78072     -218743.69      0             -218243.87     -1644.6938      189162.46    
     22300   340.73211     -218748.6       0             -218248.84      253.06627      188989.22    
     22400   336.76911     -218747.8       0             -218253.86     -230.58375      189182.89    
     22500   339.14338     -218752.68      0             -218255.25      487.49033      189300.89    
     22600   339.21271     -218749.23      0             -218251.7      -441.03998      189522.46    
     22700   342.79557     -218749.91      0             -218247.13      1371.1093      189350       
     22800   342.00647     -218745         0             -218243.37     -729.25789      189696.56    
     22900   343.12677     -218749.65      0             -218246.38      257.88305      189471.45    
     23000   336.06745     -218744.22      0             -218251.31     -63.415199      189566.5     
     23006   338.67532     -218748.29      0             -218251.55     -313.61873      189585.1     
Loop time of 295.997 on 8 procs for 23000 steps with 11348 atoms

Performance: 6.714 ns/day, 3.575 hours/ns, 77.704 timesteps/s
97.3% CPU use with 8 MPI tasks x 1 OpenMP threads

MPI task timing breakdown:
Section |  min time  |  avg time  |  max time  |%varavg| %total
---------------------------------------------------------------
Pair    | 70.194     | 72.858     | 75.523     |  20.2 | 24.61
Kspace  | 138.52     | 141.3      | 144.23     |  15.7 | 47.74
Neigh   | 8.9769     | 9.2326     | 9.5102     |   5.6 |  3.12
Comm    | 4.3454     | 4.3733     | 4.3964     |   0.8 |  1.48
Output  | 0.77095    | 0.77198    | 0.77863    |   0.3 |  0.26
Modify  | 52.047     | 53.452     | 54.643     |  10.4 | 18.06
Other   |            | 14.01      |            |       |  4.73

Nlocal:         1418.5 ave        1442 max        1403 min
Histogram: 1 2 0 3 0 0 0 0 0 2
Nghost:        3921.62 ave        3937 max        3900 min
Histogram: 1 0 0 1 1 1 1 0 2 1
Neighs:         105350 ave      109754 max      103268 min
Histogram: 3 0 2 1 0 0 1 0 0 1

Total # of neighbors = 842799
Ave neighs/atom = 74.268505
Neighbor list builds = 3635
Dangerous builds = 0
unfix 1

timestep 0.001
fix                 1 all nvt temp ${Tmp} ${Tmp} 0.1
fix                 1 all nvt temp 340 ${Tmp} 0.1
fix                 1 all nvt temp 340 340 0.1
compute             myRDF all rdf 100
fix                 RDF all ave/time 100 1 100 c_myRDF[*] file lammps00_${Tmp}.rdf mode vector
fix                 RDF all ave/time 100 1 100 c_myRDF[*] file lammps00_340.rdf mode vector
run                 345000
PPPM initialization ...
  using 12-bit tables for long-range coulomb (src/kspace.cpp:342)
  G vector (1/distance) = 0.36922131
  grid = 54 48 64
  stencil order = 5
  estimated absolute RMS force accuracy = 0.0017688172
  estimated relative force accuracy = 0.00012283756
  using double precision FFTW3
  3d grid and FFT values/proc = 34336 20736
Generated 0 of 6 mixed pair_coeff terms from geometric mixing rule
Neighbor list info ...
  update every 1 steps, delay 0 steps, check yes
  max neighbors/atom: 2000, page size: 100000
  master list distance cutoff = 8.3
  ghost atom cutoff = 8.3
  binsize = 4.15, bins = 14 12 18
  2 neighbor lists, perpetual/occasional/extra = 1 1 0
  (1) pair buck/coul/long, perpetual
      attributes: half, newton on
      pair build: half/bin/atomonly/newton
      stencil: half/bin/3d
      bin: standard
  (2) compute rdf, occasional, copy from (1)
      attributes: half, newton on
      pair build: copy
      stencil: none
      bin: none
Per MPI rank memory allocation (min/avg/max) = 8.236 | 8.237 | 8.238 Mbytes
   Step          Temp          E_pair         E_mol          TotEng         Press     
     23006   338.67532     -218748.29      0             -218251.55     -313.5611     
     23100   338.32454     -218747.2       0             -218250.98     -926.26851    
     23200   342.77732     -218748.91      0             -218246.16      203.53821    
     23300   342.84741     -218741.85      0             -218238.99      510.26573    
     23400   341.9504      -218743.09      0             -218241.54     -41.080155    
     23500   339.26616     -218748.4       0             -218250.79     -87.23185     
     23600   339.98945     -218750.69      0             -218252.03     -1192.7454    
     23700   336.66766     -218744.78      0             -218250.99     -443.23373    
     23800   339.49576     -218742.92      0             -218244.98     -1438.0837    
     23900   342.77658     -218741.93      0             -218239.17      51.283366    
     24000   339.34603     -218740.97      0             -218243.25      549.91534    
     24100   338.83949     -218751.36      0             -218254.38     -2167.7413    
     24200   339.79975     -218752.7       0             -218254.31     -1085.0359    
     24300   338.38986     -218744.56      0             -218248.24      596.86917    
     24400   343.19742     -218746.94      0             -218243.56     -150.90341    
     24500   340.298       -218744.1       0             -218244.98     -294.8865     
     24600   337.28535     -218749.74      0             -218255.04      439.09686    
     24700   336.13528     -218750.81      0             -218257.8       1045.8699    
     24800   340.39752     -218753.02      0             -218253.76      433.49451    
     24900   342.23804     -218749.3       0             -218247.34     -128.18032    
     25000   342.19439     -218745.43      0             -218243.53     -526.41829    
     25100   344.93609     -218751.78      0             -218245.86     -1301.6619    
     25200   337.78339     -218744.37      0             -218248.94     -1249.6139    
     25300   340.53472     -218747.91      0             -218248.44      660.35648    
     25400   339.85149     -218746.42      0             -218247.95      421.83       
     25500   337.33329     -218742.93      0             -218248.16     -903.88464    
     25600   341.18714     -218751.06      0             -218250.64      825.83067    
     25700   340.96741     -218754.67      0             -218254.56      66.590435    
     25800   336.59884     -218746.89      0             -218253.2       987.09614    
     25900   339.80786     -218744.65      0             -218246.25      956.907      
     26000   341.04546     -218742.53      0             -218242.32      724.65473    
     26100   343.74316     -218748.6       0             -218244.43      83.510666    
     26200   337.53174     -218751.12      0             -218256.06      422.22332    
     26300   338.9634      -218753.54      0             -218256.38      599.79878    
     26400   338.08415     -218746.13      0             -218250.25      77.671478    
     26500   343.94977     -218749.81      0             -218245.33      212.57229    
     26600   340.71369     -218744.68      0             -218244.95     -910.34073    
     26700   339.19585     -218747.46      0             -218249.95     -1089.213     
     26800   334.68173     -218750.98      0             -218260.1      -859.3287     
     26900   334.04663     -218752.1       0             -218262.15     -900.4573     
     27000   338.29778     -218753.95      0             -218257.77     -552.45318    
     27100   338.91796     -218748.52      0             -218251.43      115.099      
     27200   341.7323      -218746.72      0             -218245.49     -1125.6803    
     27300   337.96804     -218738.93      0             -218243.22     -781.33832    
     27400   339.00887     -218744.57      0             -218247.34     -254.36833    
     27500   336.7111      -218750.39      0             -218256.53     -297.57443    
     27600   337.77931     -218751.67      0             -218256.24     -695.45817    
     27700   342.16925     -218753.59      0             -218251.72     -246.35002    
     27800   338.48041     -218744.46      0             -218248        -277.38909    
     27900   343.43768     -218750.51      0             -218246.79     -302.79824    
     28000   339.89336     -218745.59      0             -218247.07     -1499.4194    
     28100   340.27919     -218746.62      0             -218247.53     -728.04456    
     28200   339.73236     -218751.05      0             -218252.76     -678.05455    
     28300   336.7448      -218753.12      0             -218259.21     -293.06695    
     28400   335.95182     -218749.16      0             -218256.42     -735.21382    
     28500   337.01459     -218742.57      0             -218248.26     -764.10639    
     28600   342.15952     -218747.09      0             -218245.24     -817.28109    
     28700   339.85074     -218745.7       0             -218247.24      215.34253    
     28800   338.48198     -218749.52      0             -218253.07      154.90168    
     28900   337.10382     -218754.83      0             -218260.39      172.44237    
     29000   334.00725     -218755.06      0             -218265.17      471.93488    
     29100   336.71903     -218747.64      0             -218253.77      700.50534    
     29200   337.33035     -218743.72      0             -218248.96      148.76365    
     29300   343.20953     -218748.73      0             -218245.34     -275.17014    
     29400   339.00761     -218743.22      0             -218245.99     -1246.3098    
     29500   341.05624     -218750.31      0             -218250.08     -603.14051    
     29600   336.62468     -218750.29      0             -218256.56     -441.09728    
     29700   336.0267      -218749.18      0             -218256.32      1364.8861    
     29800   342.15163     -218747.12      0             -218245.28     -315.52821    
     29900   342.73254     -218744.86      0             -218242.17      460.83857    
     30000   339.6971      -218743.93      0             -218245.7      -1086.0049    
     30100   339.6516      -218750.64      0             -218252.47     -109.94128    
     30200   341.37173     -218755.1       0             -218254.4      -175.43669    
     30300   338.44294     -218748.45      0             -218252.05     -161.60947    
     30400   336.24258     -218742.78      0             -218249.61     -796.66727    
     30500   340.85051     -218747.35      0             -218247.42     -1481.3035    
     30600   340.6489      -218745.34      0             -218245.7      -333.56224    
     30700   341.28808     -218745.21      0             -218244.64     -578.58665    
     30800   341.82886     -218747.44      0             -218246.08     -400.04316    
     30900   335.76048     -218744.21      0             -218251.75      890.42091    
     31000   340.85751     -218754.99      0             -218255.05      234.87306    
     31100   334.37247     -218744.49      0             -218254.06      637.37716    
     31200   339.68975     -218742.15      0             -218243.92      1096.5825    
     31300   342.01177     -218743.21      0             -218241.58      381.24423    
     31400   340.50905     -218745.37      0             -218245.94     -602.30107    
     31500   338.47431     -218748.8       0             -218252.36     -680.03371    
     31600   335.27547     -218744.48      0             -218252.73     -139.99326    
     31700   336.88692     -218745.42      0             -218251.31     -473.64866    
     31800   339.8731      -218747.2       0             -218248.7      -965.83229    
     31900   340.23523     -218744.43      0             -218245.41      1038.1298    
     32000   340.68467     -218738.59      0             -218238.91      581.49194    
     32100   348.48259     -218744.88      0             -218233.75      1100.3782    
     32200   341.43505     -218742.98      0             -218242.2      -159.1148     
     32300   341.36983     -218748.65      0             -218247.95     -520.94541    
     32400   340.63062     -218749.58      0             -218249.97     -400.68734    
     32500   338.92483     -218749.88      0             -218252.77     -232.32987    
     32600   334.99388     -218742.76      0             -218251.42     -44.086052    
     32700   340.33325     -218743.41      0             -218244.23      699.06521    
     32800   346.69718     -218747.85      0             -218239.34     -355.83872    
     32900   337.80136     -218740.4       0             -218244.94     -93.271187    
     33000   341.12025     -218752.68      0             -218252.36     -832.14813    
     33100   338.16376     -218748.86      0             -218252.87      277.05394    
     33200   340.14402     -218749.87      0             -218250.97     -376.26095    
     33300   340.10075     -218744.87      0             -218246.04     -564.75397    
     33400   343.21049     -218744         0             -218240.61      1085.1381    
     33500   342.24376     -218740.91      0             -218238.93      432.29203    
     33600   340.15331     -218744.71      0             -218245.8      -53.720638    
     33700   338.56981     -218748.87      0             -218252.29     -467.29831    
     33800   337.85617     -218749.44      0             -218253.9      -340.59864    
     33900   338.96542     -218747.03      0             -218249.87     -682.57273    
     34000   340.15669     -218740.56      0             -218241.65     -546.67867    
     34100   340.23458     -218739.96      0             -218240.93     -144.26335    
     34200   335.59949     -218737.32      0             -218245.09     -1069.9643    
     34300   341.4246      -218748.06      0             -218247.28     -661.2683     
     34400   344.18258     -218752.88      0             -218248.06     -1461.9396    
     34500   339.04305     -218748.33      0             -218251.05     -568.82551    
     34600   338.67697     -218751.21      0             -218254.46      843.15383    
     34700   337.39835     -218753.93      0             -218259.06      941.93276    
     34800   338.77659     -218752.02      0             -218255.13     -477.85266    
     34900   341.72958     -218746.96      0             -218245.74     -684.32356    
     35000   338.03934     -218739.73      0             -218243.92      71.362926    
     35100   341.87691     -218747.87      0             -218246.44     -110.67717    
     35200   338.2471      -218750.34      0             -218254.23      762.56616    
     35300   338.70679     -218755.29      0             -218258.51     -361.53755    
     35400   337.0263      -218749.51      0             -218255.19     -1261.3431    
     35500   343.20318     -218748.77      0             -218245.39     -94.085895    
     35600   340.50249     -218744.25      0             -218244.83     -222.09999    
     35700   338.16876     -218743.17      0             -218247.17     -1523.0395    
     35800   340.02048     -218750.25      0             -218251.54     -1496.7808    
     35900   337.67975     -218751.21      0             -218255.93     -15.165335    
     36000   337.91365     -218751.44      0             -218255.82      156.17083    
     36100   339.50477     -218743.71      0             -218245.75      1134.4345    
     36200   341.89319     -218742.89      0             -218241.43     -157.44502    
     36300   337.61031     -218740.1       0             -218244.92     -378.41013    
     36400   338.4038      -218747.2       0             -218250.86      331.68109    
     36500   335.29721     -218744.58      0             -218252.8      -332.50638    
     36600   339.02613     -218748.26      0             -218251        -597.25974    
     36700   339.04994     -218745.03      0             -218247.74      568.74932    
     36800   342.51262     -218748.47      0             -218246.1      -10.756773    
     36900   340.67001     -218746.3       0             -218246.64     -619.63817    
     37000   339.0102      -218748.17      0             -218250.94     -81.402757    
     37100   337.63931     -218750.89      0             -218255.67      534.99814    
     37200   337.81053     -218748.61      0             -218253.14      693.98997    
     37300   341.39592     -218746.97      0             -218246.24     -247.77493    
     37400   342.69222     -218743.93      0             -218241.3      -1460.7662    
     37500   344.0642      -218748.12      0             -218243.48     -106.6056     
     37600   342.92939     -218749.95      0             -218246.97      1656.3092    
     37700   337.45469     -218744.09      0             -218249.14     -891.01872    
     37800   338.79086     -218746.63      0             -218249.72      13.329066    
     37900   341.51388     -218748.47      0             -218247.57      125.94876    
     38000   339.61541     -218741.97      0             -218243.85     -963.01849    
     38100   343.7742      -218742.31      0             -218238.1      -178.1325     
     38200   343.01298     -218744.64      0             -218241.54      96.95591     
     38300   339.99264     -218749.69      0             -218251.02      267.79363    
     38400   337.26678     -218746.83      0             -218252.15      448.45006    
     38500   341.13911     -218750.14      0             -218249.79     -1040.4776    
     38600   342.23577     -218747.3       0             -218245.34      139.59331    
     38700   344.10113     -218742.93      0             -218238.23     -862.50202    
     38800   344.85962     -218743.8       0             -218237.99     -368.9651     
     38900   339.85624     -218748.03      0             -218249.56     -29.320116    
     39000   337.60116     -218748.4       0             -218253.24      989.96367    
     39100   339.82401     -218751.12      0             -218252.7       307.05828    
     39200   339.70066     -218743.97      0             -218245.72      499.39779    
     39300   343.54132     -218744.9       0             -218241.03     -447.17983    
     39400   337.27824     -218740.18      0             -218245.49     -1160.5949    
     39500   338.00235     -218750.19      0             -218254.43     -505.67102    
     39600   340.08981     -218751.75      0             -218252.93      226.24725    
     39700   338.59343     -218744.77      0             -218248.15     -296.87408    
     39800   340.80298     -218742.95      0             -218243.09      358.34804    
     39900   341.72147     -218743.76      0             -218242.55      131.47619    
     40000   339.37384     -218750.53      0             -218252.77     -496.54507    
     40100   340.1511      -218755.93      0             -218257.02     -66.330651    
     40200   338.73005     -218749.18      0             -218252.36     -398.20942    
     40300   342.29308     -218749.55      0             -218247.5      -223.72648    
     40400   340.24496     -218745.85      0             -218246.8       499.90261    
     40500   337.63134     -218743.94      0             -218248.73      677.87601    
     40600   336.09768     -218750.95      0             -218258        -152.03067    
     40700   340.78456     -218759.97      0             -218260.14     -1581.3532    
     40800   336.05047     -218745.52      0             -218252.63      39.948023    
     40900   340.54924     -218747.42      0             -218247.93     -476.16897    
     41000   342.92129     -218748.79      0             -218245.82     -528.59584    
     41100   344.75224     -218751.96      0             -218246.3      -596.38108    
     41200   335.30907     -218746.54      0             -218254.73      561.48507    
     41300   336.41465     -218752.53      0             -218259.11     -1343.1341    
     41400   335.45898     -218745.41      0             -218253.39      307.45483    
     41500   340.38476     -218747.73      0             -218248.49      16.60378     
     41600   337.76714     -218743.16      0             -218247.75      587.0235     
     41700   337.57024     -218743.1       0             -218247.98      291.62643    
     41800   337.70184     -218746.72      0             -218251.41      25.688538    
     41900   335.54324     -218750.48      0             -218258.34     -339.94172    
     42000   336.86374     -218750.76      0             -218256.68     -1212.9613    
     42100   340.10238     -218745.74      0             -218246.9      -178.63522    
     42200   341.06247     -218744.45      0             -218244.21      242.27966    
     42300   342.42488     -218748.15      0             -218245.91     -881.71369    
     42400   337.13149     -218745.87      0             -218251.39     -85.643851    
     42500   334.854       -218748.02      0             -218256.88     -810.61883    
     42600   339.48107     -218754.81      0             -218256.89     -630.73641    
     42700   336.88992     -218741.23      0             -218247.1      -373.87105    
     42800   337.926       -218738.69      0             -218243.05      27.133984    
     42900   338.50372     -218741.93      0             -218245.44     -339.81623    
     43000   339.22196     -218749.13      0             -218251.58     -1672.9234    
     43100   335.45931     -218747.91      0             -218255.89      18.246967    
     43200   338.61506     -218748.75      0             -218252.1      -1536.1232    
     43300   341.81761     -218741.09      0             -218239.74     -732.63481    
     43400   339.68641     -218737.94      0             -218239.71     -697.42473    
     43500   337.52593     -218741.97      0             -218246.91     -767.06353    
     43600   336.68511     -218746.7       0             -218252.88     -218.76684    
     43700   336.45401     -218747.63      0             -218254.14     -1487.1965    
     43800   341.00665     -218749.56      0             -218249.4       262.14579    
     43900   342.28819     -218743.39      0             -218241.35      1468.251     
     44000   336.44736     -218735.52      0             -218242.05     -694.39301    
     44100   340.90453     -218744.58      0             -218244.57     -167.8214     
     44200   337.33214     -218744.96      0             -218250.19      360.98777    
     44300   335.45087     -218744.52      0             -218252.51     -749.75605    
     44400   340.98778     -218748.52      0             -218248.39      824.56853    
     44500   342.11281     -218740.99      0             -218239.21      198.61143    
     44600   341.57645     -218738.08      0             -218237.08     -810.1871     
     44700   341.69599     -218745.32      0             -218244.15      143.153      
     44800   343.46815     -218751.8       0             -218248.03     -566.94502    
     44900   342.61193     -218752.08      0             -218249.56      38.804559    
     45000   338.94299     -218746.71      0             -218249.57     -670.58732    
     45100   341.27948     -218746.61      0             -218246.05     -963.1208     
     45200   343.37456     -218743.8       0             -218240.17      380.93837    
     45300   343.04987     -218740.96      0             -218237.8      -562.99565    
     45400   344.05656     -218752.09      0             -218247.46     -1240.6334    
     45500   338.31932     -218749.42      0             -218253.2       262.44072    
     45600   336.80471     -218746.53      0             -218252.53      518.30997    
     45700   338.27849     -218744.87      0             -218248.72     -848.82101    
     45800   337.03734     -218735.18      0             -218240.84      473.56374    
     45900   341.15374     -218740.14      0             -218239.77      287.42926    
     46000   339.04101     -218748.03      0             -218250.76     -881.08359    
     46100   337.25505     -218748.1       0             -218253.45     -312.22203    
     46200   337.258       -218746.04      0             -218251.38      513.28207    
     46300   341.24825     -218747.22      0             -218246.71     -712.88772    
     46400   341.76052     -218743.47      0             -218242.21     -322.6875     
     46500   340.53196     -218742.76      0             -218243.3       37.927125    
     46600   336.06337     -218746.7       0             -218253.79      136.33796    
     46700   342.06295     -218756.51      0             -218254.8      -846.10986    
     46800   335.87163     -218742.6       0             -218249.97     -721.36427    
     46900   340.08177     -218743.17      0             -218244.37      472.82605    
     47000   338.92921     -218741.86      0             -218244.75      825.40102    
     47100   338.74419     -218743.29      0             -218246.45     -555.12524    
     47200   337.23399     -218741.87      0             -218247.25     -211.05646    
     47300   342.77255     -218752.37      0             -218249.62     -399.65924    
     47400   337.2285      -218749.07      0             -218254.45      41.058495    
     47500   334.44652     -218749.97      0             -218259.44     -824.03677    
     47600   333.01039     -218746.4       0             -218257.97      495.21454    
     47700   343.66803     -218751.69      0             -218247.63      421.62883    
     47800   342.99284     -218747.52      0             -218244.45     -792.43629    
     47900   338.21036     -218741.94      0             -218245.88     -322.60136    
     48000   339.19657     -218749.02      0             -218251.52      528.49089    
     48100   337.247       -218754.21      0             -218259.56     -394.85197    
     48200   333.58511     -218747.72      0             -218258.44     -946.56395    
     48300   342.44101     -218754.27      0             -218252.01     -261.68652    
     48400   336.33846     -218743.86      0             -218250.55      112.63694    
     48500   345.4993      -218754.13      0             -218247.38      516.04057    
     48600   344.94561     -218751.51      0             -218245.58      1374.8914    
     48700   340.3681      -218746.33      0             -218247.11      311.93223    
     48800   339.39388     -218751.59      0             -218253.8      -66.378777    
     48900   337.63912     -218752.42      0             -218257.2      -477.95585    
     49000   337.66481     -218747.96      0             -218252.71     -341.93137    
     49100   340.03333     -218741.91      0             -218243.17     -166.40241    
     49200   343.53371     -218746.77      0             -218242.9      -1496.7148    
     49300   339.79085     -218746.84      0             -218248.46     -612.8273     
     49400   338.48854     -218748.96      0             -218252.49     -53.048588    
     49500   340.47064     -218751.65      0             -218252.28      1068.7414    
     49600   341.22243     -218749.29      0             -218248.81     -113.32619    
     49700   343.29243     -218743.13      0             -218239.62      733.43428    
     49800   345.10422     -218738.56      0             -218232.39      420.32783    
     49900   344.34346     -218745.89      0             -218240.84      441.59202    
     50000   341.93294     -218748.96      0             -218247.44     -70.332723    
     50100   341.01051     -218751.54      0             -218251.38      921.73181    
     50200   338.84276     -218752.25      0             -218255.27     -94.214935    
     50300   338.90436     -218750.96      0             -218253.88     -185.49885    
     50400   342.94044     -218746.38      0             -218243.39      438.16809    
     50500   343.35776     -218745.04      0             -218241.43     -2151.0639    
     50600   342.78374     -218748.27      0             -218245.5      -455.45175    
     50700   340.50375     -218751.22      0             -218251.79     -435.08403    
     50800   338.11921     -218748.04      0             -218252.12      114.85096    
     50900   338.26695     -218746.71      0             -218250.56      53.901712    
     51000   338.72485     -218744.97      0             -218248.16      114.70392    
     51100   342.45977     -218747.96      0             -218245.67      490.44243    
     51200   340.72445     -218747.53      0             -218247.79      615.68853    
     51300   339.24203     -218752.6       0             -218255.03      81.671328    
     51400   336.18685     -218750.79      0             -218257.69      1121.2004    
     51500   341.4192      -218751.34      0             -218250.58     -682.37579    
     51600   340.70319     -218744.42      0             -218244.71     -652.1451     
     51700   341.0081      -218744.85      0             -218244.69     -521.11837    
     51800   340.71922     -218748.06      0             -218248.32     -1744.2336    
     51900   340.8234      -218750.34      0             -218250.45     -689.13824    
     52000   337.21341     -218745.6       0             -218251.01     -1011.5382    
     52100   343.49449     -218752.2       0             -218248.39     -748.87927    
     52200   341.90356     -218738.57      0             -218237.1      -662.55298    
     52300   346.35858     -218741.1       0             -218233.09      162.18068    
     52400   343.0425      -218746.18      0             -218243.03     -281.45309    
     52500   340.81684     -218749.64      0             -218249.76     -75.347695    
     52600   338.30975     -218749.26      0             -218253.05     -212.99008    
     52700   336.85436     -218745.1       0             -218251.03     -184.74403    
     52800   340.90935     -218745.23      0             -218245.21      719.51311    
     52900   342.74236     -218741.83      0             -218239.12     -646.0747     
     53000   340.04402     -218741.99      0             -218243.24      612.53586    
     53100   338.8888      -218750.04      0             -218252.99     -20.741622    
     53200   338.80086     -218749.17      0             -218252.25     -396.05958    
     53300   344.70776     -218754.04      0             -218248.46     -496.11633    
     53400   342.47501     -218746.35      0             -218244.04     -99.213921    
     53500   342.8794      -218741.76      0             -218238.85     -492.85673    
     53600   346.84408     -218746.99      0             -218238.27      273.06876    
     53700   337.26738     -218743.54      0             -218248.86     -302.822      
     53800   337.69694     -218747.76      0             -218252.45     -982.94603    
     53900   336.14039     -218745.56      0             -218252.53      74.850171    
     54000   343.41573     -218750.36      0             -218246.67      429.95189    
     54100   342.78817     -218742.88      0             -218240.11      652.98754    
     54200   342.30283     -218742.49      0             -218240.43      1419.6413    
     54300   337.43643     -218747.98      0             -218253.06      691.55868    
     54400   336.40061     -218748.02      0             -218254.62     -569.31238    
     54500   340.61974     -218749.27      0             -218249.68     -1128.2486    
     54600   342.2265      -218746.67      0             -218244.72     -130.46594    
     54700   343.46945     -218747.55      0             -218243.78      166.23146    
     54800   342.8482      -218751.74      0             -218248.88     -259.48099    
     54900   335.05205     -218748.38      0             -218256.96     -125.82049    
     55000   338.35096     -218750.23      0             -218253.97     -94.855324    
     55100   339.52189     -218744.77      0             -218246.79      571.23992    
     55200   342.12919     -218746         0             -218244.2       65.111433    
     55300   343.83353     -218749.66      0             -218245.35      790.42702    
     55400   336.4424      -218741.94      0             -218248.48     -676.67553    
     55500   339.65929     -218746.71      0             -218248.53     -567.29931    
     55600   339.27902     -218746.96      0             -218249.33     -913.3698     
     55700   340.28391     -218749.23      0             -218250.13     -232.85302    
     55800   341.36073     -218748.74      0             -218248.06      253.233      
     55900   341.31374     -218742.83      0             -218242.22     -324.78098    
     56000   343.27501     -218744.67      0             -218241.18     -286.92623    
     56100   337.84542     -218743.85      0             -218248.32      357.72235    
     56200   339.62942     -218752.8       0             -218254.66      46.731932    
     56300   341.11668     -218754.12      0             -218253.8      -797.12943    
     56400   342.12027     -218751.16      0             -218249.36      432.60525    
     56500   339.30022     -218743.19      0             -218245.54      257.09297    
     56600   339.10785     -218741.29      0             -218243.92     -430.42519    
     56700   343.91321     -218747.24      0             -218242.81     -118.10166    
     56800   339.38082     -218744.56      0             -218246.78     -321.13338    
     56900   341.13745     -218752.01      0             -218251.66     -1010.3878    
     57000   337.65615     -218750.08      0             -218254.83     -780.04985    
     57100   337.71849     -218746.28      0             -218250.95     -285.40065    
     57200   340.0727      -218740.57      0             -218241.78      458.6605     
     57300   337.65678     -218737.02      0             -218241.77      265.38623    
     57400   340.11517     -218745.07      0             -218246.22     -468.63048    
     57500   339.7072      -218747.98      0             -218249.73     -352.86656    
     57600   337.34327     -218745.33      0             -218250.55     -528.35896    
     57700   342.35707     -218751.75      0             -218249.61     -456.21908    
     57800   340.97389     -218749.5       0             -218249.39     -562.58732    
     57900   340.22935     -218748.05      0             -218249.03     -921.32315    
     58000   337.94408     -218744.76      0             -218249.09     -102.96701    
     58100   336.39773     -218741.15      0             -218247.75      183.49373    
     58200   343.05415     -218749.83      0             -218246.67      36.274673    
     58300   342.56028     -218750.04      0             -218247.6      -392.13619    
     58400   335.38075     -218744.92      0             -218253.01      673.16268    
     58500   337.08311     -218748.5       0             -218254.09      133.053      
     58600   340.27196     -218748.2       0             -218249.12     -577.53548    
     58700   341.81141     -218742.28      0             -218240.94      227.88023    
     58800   344.02622     -218745.09      0             -218240.5       525.75821    
     58900   340.60676     -218745.12      0             -218245.55      202.48305    
     59000   339.20524     -218744.86      0             -218247.35     -35.284251    
     59100   339.12859     -218746.69      0             -218249.29      254.57061    
     59200   340.76277     -218752.54      0             -218252.74      1180.061     
     59300   338.82231     -218755.73      0             -218258.78     -351.40101    
     59400   336.84673     -218754.59      0             -218260.53     -272.11351    
     59500   341.84341     -218751.46      0             -218250.07     -54.436421    
     59600   342.1855      -218748.24      0             -218246.35      218.13058    
     59700   341.61032     -218745.74      0             -218244.7      -405.52148    
     59800   343.12032     -218748.28      0             -218245.02     -834.51751    
     59900   335.59085     -218744.68      0             -218252.46     -1071.4563    
     60000   335.93271     -218749.97      0             -218257.26     -1054.3728    
     60100   337.63425     -218748.61      0             -218253.4      -7.5398753    
     60200   340.18495     -218744.94      0             -218245.99      19.407847    
     60300   339.41175     -218743.36      0             -218245.54     -472.36679    
     60400   341.82459     -218748.31      0             -218246.95     -157.64043    
     60500   340.8651      -218751.04      0             -218251.09     -732.81376    
     60600   338.07959     -218752.32      0             -218256.45      164.75636    
     60700   335.24438     -218753.78      0             -218262.07      523.54943    
     60800   337.72957     -218756.18      0             -218260.82      254.34235    
     60900   339.56831     -218747.79      0             -218249.74      318.41715    
     61000   343.54524     -218749.85      0             -218245.97      484.61575    
     61100   340.16314     -218745.62      0             -218246.7       171.66409    
     61200   340.00674     -218748.86      0             -218250.17     -324.14609    
     61300   337.72476     -218751.89      0             -218256.55     -547.51865    
     61400   336.74931     -218752.19      0             -218258.27      121.14124    
     61500   342.15945     -218749.89      0             -218248.04     -31.315855    
     61600   342.80111     -218746.07      0             -218243.28      173.86813    
     61700   344.04978     -218749.53      0             -218244.91      101.48281    
     61800   342.39379     -218752.44      0             -218250.24     -815.67253    
     61900   334.91708     -218748.72      0             -218257.5       310.50026    
     62000   340.15261     -218756.5       0             -218257.59     -508.75692    
     62100   341.21519     -218744.82      0             -218244.35      954.94237    
     62200   342.36038     -218745.01      0             -218242.86     -984.91081    
     62300   338.57359     -218744.4       0             -218247.81     -727.64044    
     62400   339.23098     -218751.38      0             -218253.82      299.77923    
     62500   336.94753     -218749.94      0             -218255.73      454.94129    
     62600   339.75413     -218745.73      0             -218247.41      349.98481    
     62700   341.39476     -218742.45      0             -218241.72     -210.8912     
     62800   342.86516     -218747.86      0             -218244.98      117.53442    
     62900   341.75759     -218750.83      0             -218249.57     -40.490111    
     63000   339.82233     -218751.6       0             -218253.18     -52.813992    
     63100   340.43246     -218754.43      0             -218255.11     -301.40485    
     63200   335.03654     -218745.12      0             -218253.72     -1745.2302    
     63300   344.73743     -218752.32      0             -218246.69     -272.98422    
     63400   343.68421     -218746.98      0             -218242.89     -47.289598    
     63500   338.9395      -218741.72      0             -218244.59      176.65457    
     63600   338.17866     -218749.88      0             -218253.87     -134.14204    
     63700   337.17681     -218750.85      0             -218256.3      -513.86607    
     63800   335.1415      -218743.58      0             -218252.02     -1020.2849    
     63900   342.08314     -218749.27      0             -218247.53     -1419.2726    
     64000   335.69737     -218738.7       0             -218246.33     -542.00563    
     64100   340.94172     -218746.38      0             -218246.31      193.64857    
     64200   338.19092     -218746.14      0             -218250.11     -327.87337    
     64300   333.26299     -218751.37      0             -218262.57     -455.54544    
     64400   333.10421     -218751.22      0             -218262.65     -847.40286    
     64500   337.24075     -218750.1       0             -218255.47      155.21984    
     64600   342.48994     -218751.46      0             -218249.12     -13.770011    
     64700   339.79279     -218743.77      0             -218245.39     -1095.4263    
     64800   342.04479     -218746.22      0             -218244.54     -255.75092    
     64900   339.58354     -218750.13      0             -218252.06     -259.27654    
     65000   335.3924      -218750.22      0             -218258.29      189.40137    
     65100   336.19783     -218747.73      0             -218254.62      56.799753    
     65200   342.40773     -218751.39      0             -218249.17     -334.68895    
     65300   339.75095     -218745.71      0             -218247.39     -408.68712    
     65400   339.58084     -218746.18      0             -218248.11     -0.55369818   
     65500   340.09983     -218749.09      0             -218250.26     -335.6308     
     65600   337.11397     -218752.07      0             -218257.62     -440.04846    
     65700   335.481       -218750.96      0             -218258.91     -814.86218    
     65800   339.803       -218749.12      0             -218250.73     -632.98276    
     65900   337.53753     -218741.75      0             -218246.68      117.41064    
     66000   339.55613     -218744.01      0             -218245.98      355.91341    
     66100   340.02945     -218745.78      0             -218247.05      705.48177    
     66200   337.63851     -218750.9       0             -218255.68     -517.29748    
     66300   339.87288     -218758.71      0             -218260.21      803.35027    
     66400   337.04952     -218749.89      0             -218255.54     -228.41363    
     66500   342.30961     -218752.27      0             -218250.2       340.42089    
     66600   339.57836     -218745.8       0             -218247.74     -940.29606    
     66700   340.01638     -218745.07      0             -218246.37     -823.36234    
     66800   342.31097     -218751.38      0             -218249.31     -14.239761    
     66900   338.27975     -218754.26      0             -218258.1      -1023.2119    
     67000   336.53229     -218749.48      0             -218255.88     -54.070273    
     67100   338.58731     -218745.95      0             -218249.34     -216.44775    
     67200   341.21814     -218747.36      0             -218246.89      536.3774     
     67300   340.20837     -218746.62      0             -218247.63     -74.916666    
     67400   340.05244     -218747.93      0             -218249.17      291.34876    
     67500   337.27162     -218752.3       0             -218257.62      75.12619     
     67600   337.07261     -218755.15      0             -218260.76     -20.794657    
     67700   337.45331     -218747.35      0             -218252.4      -366.25128    
     67800   337.61713     -218741.91      0             -218246.72      176.05035    
     67900   343.26098     -218750.98      0             -218247.52     -224.11095    
     68000   336.27074     -218742.97      0             -218249.76      596.8192     
     68100   342.02234     -218753.18      0             -218251.53      15.513814    
     68200   341.73495     -218755.06      0             -218253.84     -32.235307    
     68300   340.33411     -218751.96      0             -218252.79     -402.91332    
     68400   342.00402     -218747.36      0             -218245.74      140.71454    
     68500   343.45537     -218744.87      0             -218241.12     -527.5186     
     68600   340.0354      -218743.77      0             -218245.04     -443.82074    
     68700   338.54445     -218750.9       0             -218254.35     -157.07268    
     68800   337.16075     -218750.85      0             -218256.33      714.59862    
     68900   340.24387     -218751.1       0             -218252.05      899.11917    
     69000   340.16169     -218745.44      0             -218246.52     -13.467309    
     69100   342.67266     -218746.23      0             -218243.62     -1076.5359    
     69200   339.0849      -218745.03      0             -218247.69     -154.31975    
     69300   336.63481     -218751.7       0             -218257.95      663.13086    
     69400   331.06188     -218742.36      0             -218256.79     -1062.7053    
     69500   341.95797     -218751.64      0             -218250.08     -283.57857    
     69600   343.64679     -218750.86      0             -218246.82     -479.78361    
     69700   340.14309     -218744.42      0             -218245.52      332.7946     
     69800   338.16364     -218744.32      0             -218248.33     -531.22986    
     69900   334.75057     -218750.42      0             -218259.43     -204.3879     
     70000   337.44131     -218753.88      0             -218258.95     -583.02147    
     70100   341.87357     -218753.17      0             -218251.74     -1045.4762    
     70200   342.26581     -218750.87      0             -218248.86     -809.6841     
     70300   338.64593     -218744.32      0             -218247.62      119.92196    
     70400   339.90238     -218746.55      0             -218248.01     -320.45031    
     70500   336.95607     -218749.49      0             -218255.27      118.95849    
     70600   335.31483     -218751.38      0             -218259.56      398.1863     
     70700   341.30794     -218753.61      0             -218253.01     -381.29501    
     70800   340.22731     -218745.94      0             -218246.93     -1650.3612    
     70900   340.81487     -218745.71      0             -218245.84     -2070.2035    
     71000   338.28223     -218743.01      0             -218246.85     -318.12844    
     71100   339.42594     -218751.6       0             -218253.76     -2259.7192    
     71200   337.35396     -218753.61      0             -218258.81     -519.29838    
     71300   338.42502     -218749.28      0             -218252.9       134.03091    
     71400   338.32045     -218740.95      0             -218244.73      988.43739    
     71500   336.24914     -218737.67      0             -218244.49      449.53511    
     71600   345.05113     -218753.66      0             -218247.57      210.9312     
     71700   338.5862      -218752.43      0             -218255.82      175.98822    
     71800   336.24598     -218750.37      0             -218257.19     -112.32001    
     71900   336.54858     -218746.51      0             -218252.89     -227.12433    
     72000   338.36454     -218747.01      0             -218250.73     -1305.3554    
     72100   339.7109      -218747.49      0             -218249.23     -525.70622    
     72200   340.51043     -218744.19      0             -218244.76     -975.73097    
     72300   341.26652     -218741.8       0             -218241.26     -653.72021    
     72400   345.38282     -218749.42      0             -218242.84      163.19883    
     72500   338.32704     -218747.5       0             -218251.27     -1198.0183    
     72600   338.40429     -218750.25      0             -218253.91      81.725079    
     72700   338.2655      -218747.06      0             -218250.92      687.95623    
     72800   343.68753     -218745.86      0             -218241.77     -676.46317    
     72900   340.35739     -218740         0             -218240.79      245.52839    
     73000   341.51167     -218745.57      0             -218244.67      407.39436    
     73100   337.13935     -218741.83      0             -218247.34      626.93347    
     73200   339.98528     -218747.41      0             -218248.75     -312.53293    
     73300   339.6842      -218747.91      0             -218249.69     -812.6409     
     73400   339.30401     -218747.81      0             -218250.15     -2.7801044    
     73500   339.35315     -218747.11      0             -218249.38      254.56736    
     73600   340.00955     -218745.87      0             -218247.17     -794.79077    
     73700   340.32944     -218744.13      0             -218244.96      412.73024    
     73800   337.72631     -218742.08      0             -218246.73     -690.86322    
     73900   337.9758      -218748.52      0             -218252.81     -1694.4805    
     74000   335.1889      -218749.67      0             -218258.05     -348.54245    
     74100   340.12661     -218752.28      0             -218253.41      536.92344    
     74200   344.54403     -218749.3       0             -218243.95      717.79454    
     74300   341.05496     -218745.2       0             -218244.97      60.034259    
     74400   339.1228      -218746.12      0             -218248.72      339.15282    
     74500   338.65388     -218750.64      0             -218253.93     -17.612519    
     74600   340.20783     -218755.13      0             -218256.14      17.126185    
     74700   338.97278     -218753.41      0             -218256.24     -465.81472    
     74800   341.43417     -218748.91      0             -218248.12     -602.07373    
     74900   340.74349     -218743.84      0             -218244.07      365.70083    
     75000   342.86781     -218747.74      0             -218244.85      418.0505     
     75100   339.0498      -218749.5       0             -218252.21     -815.08769    
     75200   337.43967     -218752.02      0             -218257.09     -1727.499     
     75300   336.86577     -218747.26      0             -218253.17     -1976.8131    
     75400   338.93759     -218746.15      0             -218249.02      336.83352    
     75500   341.86785     -218748.66      0             -218247.24      41.904086    
     75600   340.80119     -218746.67      0             -218246.81      446.84377    
     75700   338.58178     -218745.53      0             -218248.93      880.46861    
     75800   334.70571     -218749.84      0             -218258.92     -1028.9915    
     75900   340.28493     -218759.99      0             -218260.89     -795.82195    
     76000   338.96254     -218750.39      0             -218253.22     -512.44514    
     76100   338.26638     -218744.67      0             -218248.53     -903.51334    
     76200   339.28927     -218744.45      0             -218246.81     -262.0835     
     76300   340.72071     -218747.63      0             -218247.89     -1692.7007    
     76400   336.96706     -218748.05      0             -218253.81     -362.3834     
     76500   337.91329     -218755.4       0             -218259.78      373.40368    
     76600   336.21992     -218748.36      0             -218255.22      1271.1348    
     76700   338.48863     -218743.15      0             -218246.68     -221.38821    
     76800   337.69283     -218742.07      0             -218246.77     -452.08834    
     76900   340.77887     -218749.19      0             -218249.36     -144.05461    
     77000   338.32301     -218749.6       0             -218253.38      39.667634    
     77100   338.04943     -218752.52      0             -218256.69      235.62458    
     77200   336.52219     -218748.51      0             -218254.93      504.96996    
     77300   342.17178     -218747.72      0             -218245.85     -27.867695    
     77400   344.90743     -218749.05      0             -218243.17      188.56849    
     77500   338.51909     -218744.09      0             -218247.58      162.43004    
     77600   336.7102      -218748.14      0             -218254.28     -27.097528    
     77700   335.38673     -218747.67      0             -218255.75     -444.26063    
     77800   340.30956     -218743.9       0             -218244.76     -427.29501    
     77900   343.71203     -218744.21      0             -218240.08      423.64076    
     78000   341.96536     -218746.05      0             -218244.48      205.075      
     78100   341.99642     -218752.54      0             -218250.93     -537.83101    
     78200   343.75931     -218756.62      0             -218252.42     -888.2565     
     78300   340.33798     -218748.71      0             -218249.53      214.55659    
     78400   343.7784      -218743.07      0             -218238.84      618.86629    
     78500   342.52635     -218740.41      0             -218238.02      1356.7666    
     78600   339.50741     -218742.37      0             -218244.41      62.26861     
     78700   339.56163     -218746.21      0             -218248.17     -489.68986    
     78800   338.20808     -218745.08      0             -218249.02     -231.65284    
     78900   336.75019     -218743.08      0             -218249.16     -59.46739     
     79000   338.76579     -218743.61      0             -218246.74     -674.02283    
     79100   339.34437     -218739.14      0             -218241.42     -1545.6647    
     79200   340.97592     -218740.68      0             -218240.57     -114.37095    
     79300   338.068       -218744.57      0             -218248.72      228.9607     
     79400   341.24906     -218754.83      0             -218254.31     -66.078763    
     79500   341.97695     -218753.96      0             -218252.38      784.12466    
     79600   341.47854     -218748.15      0             -218247.3      -111.91081    
     79700   342.56321     -218745.79      0             -218243.35      619.70822    
     79800   341.66578     -218746.15      0             -218245.03      376.21244    
     79900   337.48196     -218742.47      0             -218247.48      501.76659    
     80000   338.61161     -218745.14      0             -218248.5      -582.88705    
     80100   336.56951     -218745.63      0             -218251.98     -759.63436    
     80200   340.13496     -218754.57      0             -218255.69     -579.0279     
     80300   337.85463     -218752.49      0             -218256.95     -1117.7943    
     80400   341.59279     -218749.57      0             -218248.55     -1345.6497    
     80500   344.53521     -218749.64      0             -218244.3      -12.983454    
     80600   341.20084     -218745.96      0             -218245.52      366.62595    
     80700   335.88846     -218741.9       0             -218249.25      798.28061    
     80800   336.23759     -218750.91      0             -218257.75     -359.83231    
     80900   334.40542     -218747.31      0             -218256.83      705.83225    
     81000   341.92012     -218750.13      0             -218248.63     -724.03908    
     81100   340.22808     -218745.57      0             -218246.55     -111.3322     
     81200   339.5245      -218746.25      0             -218248.26     -103.4882     
     81300   342.09352     -218753.01      0             -218251.26     -1121.1173    
     81400   338.99335     -218749.73      0             -218252.53     -242.05992    
     81500   341.17403     -218748.19      0             -218247.79     -638.30638    
     81600   339.79782     -218740.24      0             -218241.86      212.76087    
     81700   344.19868     -218746.64      0             -218241.8       1011.189     
     81800   338.67691     -218746.9       0             -218250.16      252.362      
     81900   336.35873     -218749.31      0             -218255.97      391.89445    
     82000   336.50699     -218746.68      0             -218253.12     -407.33024    
     82100   340.60707     -218747.26      0             -218247.68     -173.74691    
     82200   340.79049     -218745         0             -218245.16      973.29669    
     82300   338.38119     -218742.85      0             -218246.54      164.77424    
     82400   335.88725     -218748.46      0             -218255.81      77.653878    
     82500   337.63038     -218757.61      0             -218262.4      -525.55499    
     82600   334.77262     -218747.25      0             -218256.23     -1204.5339    
     82700   337.07494     -218743.61      0             -218249.22     -152.43938    
     82800   339.8014      -218744.67      0             -218246.28      232.39       
     82900   344.10407     -218750.77      0             -218246.07      631.28394    
     83000   338.43935     -218749.03      0             -218252.64      951.21495    
     83100   338.00623     -218754.59      0             -218258.83     -586.20937    
     83200   339.20391     -218752.91      0             -218255.39      122.24048    
     83300   339.5871      -218746.2       0             -218248.12     -1110.1033    
     83400   342.38633     -218748.67      0             -218246.49     -571.8562     
     83500   338.82336     -218745.02      0             -218248.06      90.174995    
     83600   339.45153     -218749.32      0             -218251.44      878.59555    
     83700   340.80496     -218754.63      0             -218254.77      182.15897    
     83800   336.94187     -218750.7       0             -218256.5      -189.92853    
     83900   337.23857     -218745.48      0             -218250.84     -175.57332    
     84000   339.57813     -218742.12      0             -218244.06     -1098.3027    
     84100   344.88661     -218748.99      0             -218243.14     -535.46938    
     84200   336.41005     -218742.98      0             -218249.56      670.60562    
     84300   338.03926     -218753.34      0             -218257.53      180.12559    
     84400   335.32068     -218747.52      0             -218255.7      -360.09314    
     84500   339.83122     -218748.75      0             -218250.31      224.17877    
     84600   342.50529     -218749.17      0             -218246.81     -274.52632    
     84700   341.86212     -218748.68      0             -218247.26     -257.78446    
     84800   335.50735     -218742.81      0             -218250.72      725.13213    
     84900   337.77375     -218755.22      0             -218259.8       711.18965    
     85000   335.69971     -218751.98      0             -218259.6       1441.9657    
     85100   338.76816     -218746.98      0             -218250.1      -204.35282    
     85200   340.7459      -218746.91      0             -218247.14      297.64471    
     85300   340.58111     -218745.69      0             -218246.15      449.47598    
     85400   342.12349     -218749.67      0             -218247.87     -747.88136    
     85500   340.22794     -218753.17      0             -218254.16     -1067.8651    
     85600   336.42838     -218752.39      0             -218258.95     -1103.87      
     85700   338.61372     -218749.94      0             -218253.29     -175.48377    
     85800   342.4907      -218746.36      0             -218244.03     -229.79516    
     85900   344.2256      -218749.4       0             -218244.52      100.19026    
     86000   336.89736     -218743.96      0             -218249.83      379.7719     
     86100   338.45649     -218751.09      0             -218254.67      393.51752    
     86200   334.17797     -218746.76      0             -218256.62     -811.50468    
     86300   342.70435     -218750.34      0             -218247.69     -711.82928    
     86400   343.47767     -218745.45      0             -218241.66     -405.06073    
     86500   344.38317     -218747.68      0             -218242.57      527.49235    
     86600   344.81556     -218756.04      0             -218250.29      655.61105    
     86700   335.95416     -218747.68      0             -218254.93     -0.12364316   
     86800   335.81112     -218745.42      0             -218252.88      376.34582    
     86900   339.65022     -218747.42      0             -218249.25     -270.45014    
     87000   339.99551     -218746.34      0             -218247.67     -549.29911    
     87100   340.35247     -218747.84      0             -218248.64      1747.3418    
     87200   341.16992     -218749.71      0             -218249.31     -331.9984     
     87300   339.75026     -218746.94      0             -218248.63      115.85274    
     87400   338.55469     -218745.51      0             -218248.95      425.08628    
     87500   341.88214     -218750.95      0             -218249.5      -28.426188    
     87600   339.53873     -218746.76      0             -218248.75      442.36827    
     87700   339.66667     -218746.49      0             -218248.3      -943.5073     
     87800   339.78741     -218744.71      0             -218246.34     -1273.06      
     87900   341.91794     -218744.8       0             -218243.3       158.08124    
     88000   341.3133      -218744.92      0             -218244.31     -246.70617    
     88100   339.4061      -218749.07      0             -218251.26     -143.72129    
     88200   340.42483     -218755.48      0             -218256.18     -29.166338    
     88300   336.8093      -218747.51      0             -218253.5      -577.68685    
     88400   342.86456     -218747.28      0             -218244.39      66.173545    
     88500   342.60851     -218746.26      0             -218243.75     -734.01789    
     88600   340.16286     -218745.94      0             -218247.02      165.57209    
     88700   338.7333      -218748.91      0             -218252.08      1609.0074    
     88800   336.75683     -218749.88      0             -218255.96      19.70034     
     88900   337.77388     -218748.58      0             -218253.16     -113.59823    
     89000   340.00744     -218742         0             -218243.31      959.19183    
     89100   341.71916     -218743.84      0             -218242.64     -473.05249    
     89200   342.4381      -218749.51      0             -218247.25     -196.26802    
     89300   339.61972     -218752.47      0             -218254.34     -1246.9666    
     89400   339.67943     -218753.05      0             -218254.84     -763.31555    
     89500   340.74352     -218752.66      0             -218252.89     -235.77412    
     89600   338.50068     -218747.07      0             -218250.58      545.95972    
     89700   342.32179     -218749.32      0             -218247.23      882.01727    
     89800   342.50928     -218747.42      0             -218245.06      278.86532    
     89900   341.15583     -218744.46      0             -218244.08      438.46041    
     90000   340.59048     -218749.99      0             -218250.44     -246.05622    
     90100   337.74617     -218751.07      0             -218255.69      427.84292    
     90200   340.61013     -218754.61      0             -218255.03      92.163753    
     90300   341.36003     -218746.93      0             -218246.25     -670.33057    
     90400   342.39093     -218745.36      0             -218243.17     -117.08587    
     90500   340.49721     -218744.51      0             -218245.09     -640.90559    
     90600   341.40982     -218749.87      0             -218249.12      420.81512    
     90700   340.2622      -218749.57      0             -218250.51     -299.05477    
     90800   340.32718     -218748.53      0             -218249.37     -599.36768    
     90900   344.58254     -218744.71      0             -218239.31     -189.39686    
     91000   346.88467     -218746.16      0             -218237.38      802.95854    
     91100   340.87964     -218745.11      0             -218245.14     -425.63532    
     91200   341.29081     -218751.97      0             -218251.4       369.89681    
     91300   336.81643     -218746.51      0             -218252.5       695.61034    
     91400   334.82399     -218741.33      0             -218250.24     -252.4756     
     91500   343.91435     -218746.02      0             -218241.59     -674.22021    
     91600   347.88061     -218748.84      0             -218238.59      295.09407    
     91700   342.47494     -218747.79      0             -218245.48     -612.55909    
     91800   340.19265     -218748.33      0             -218249.36      317.23883    
     91900   337.60519     -218744.65      0             -218249.48      265.3384     
     92000   341.74088     -218749.45      0             -218248.21     -599.97156    
     92100   342.40731     -218749.32      0             -218247.1      -534.50315    
     92200   342.19326     -218746.94      0             -218245.04      429.79515    
     92300   340.31332     -218744.18      0             -218245.04      363.96195    
     92400   337.85402     -218745.43      0             -218249.89      329.25233    
     92500   337.61917     -218751.14      0             -218255.95      816.68396    
     92600   336.03976     -218749.56      0             -218256.69     -327.19791    
     92700   340.22149     -218746.42      0             -218247.41     -560.30756    
     92800   339.73313     -218740.27      0             -218241.98     -275.28871    
     92900   344.44617     -218749.61      0             -218244.41     -1281.5257    
     93000   339.11211     -218749.08      0             -218251.7      -721.50385    
     93100   333.9242      -218744.25      0             -218254.48     -394.024      
     93200   338.12142     -218747.92      0             -218252        -724.41955    
     93300   340.44381     -218749.38      0             -218250.04     -1157.249     
     93400   339.59789     -218745.53      0             -218247.44      482.41697    
     93500   340.64509     -218743.02      0             -218243.39      501.33784    
     93600   344.23108     -218740.17      0             -218235.28      147.40046    
     93700   341.53365     -218740.65      0             -218239.71     -562.60392    
     93800   337.03197     -218741.68      0             -218247.36     -882.46293    
     93900   339.38854     -218747.71      0             -218249.93     -1007.5715    
     94000   339.0609      -218748.92      0             -218251.61     -511.09247    
     94100   335.47187     -218743.25      0             -218251.21      1219.3217    
     94200   343.43628     -218747.65      0             -218243.93     -269.55728    
     94300   339.43037     -218737.76      0             -218239.91      748.60316    
     94400   339.5822      -218742.15      0             -218244.08     -398.08083    
     94500   339.23912     -218750.42      0             -218252.85      194.08064    
     94600   336.06932     -218746.48      0             -218253.56     -1029.2753    
     94700   338.45262     -218745.28      0             -218248.86     -1369.2874    
     94800   336.76216     -218739.7       0             -218245.76     -723.93754    
     94900   345.50669     -218750.17      0             -218243.41      114.46634    
     95000   338.58701     -218743.17      0             -218246.55      443.17743    
     95100   339.00782     -218751.81      0             -218254.58     -342.16241    
     95200   340.37943     -218753.41      0             -218254.17     -1.322227     
     95300   337.22655     -218742.96      0             -218248.34      338.03282    
     95400   342.98561     -218745.17      0             -218242.11     -443.15274    
     95500   339.64246     -218742.27      0             -218244.11     -1117.675     
     95600   341.7126      -218747.71      0             -218246.52      426.1144     
     95700   338.10413     -218744.52      0             -218248.62      444.36409    
     95800   338.25117     -218745.25      0             -218249.13     -849.25499    
     95900   340.00368     -218747.12      0             -218248.44     -506.26467    
     96000   340.40605     -218743.42      0             -218244.14     -413.25643    
     96100   338.17352     -218737.32      0             -218241.31      81.546498    
     96200   340.32071     -218744.2       0             -218245.05      1225.3131    
     96300   340.97367     -218752.88      0             -218252.77      276.26329    
     96400   338.88445     -218751.43      0             -218254.38      650.90205    
     96500   342.11203     -218752.57      0             -218250.79      1412.9841    
     96600   340.77258     -218744.74      0             -218244.92      367.32858    
     96700   346.58106     -218751.16      0             -218242.82      606.73547    
     96800   341.58212     -218746.55      0             -218245.55      66.920599    
     96900   340.656       -218748.41      0             -218248.77     -30.183867    
     97000   338.61361     -218749.19      0             -218252.54     -22.987046    
     97100   335.30011     -218747.23      0             -218255.44     -499.06708    
     97200   338.67363     -218749.6       0             -218252.86     -555.84778    
     97300   340.64739     -218743.37      0             -218243.74      307.52137    
     97400   342.85024     -218744.42      0             -218241.56     -438.92004    
     97500   338.00196     -218742         0             -218246.25     -625.04523    
     97600   340.28399     -218753.35      0             -218254.25      156.12079    
     97700   337.44268     -218748.65      0             -218253.72     -381.7818     
     97800   344.44554     -218755.54      0             -218250.34     -417.11815    
     97900   341.95543     -218747.3       0             -218245.75      419.03519    
     98000   340.90343     -218744.66      0             -218244.65      174.41266    
     98100   339.82277     -218749.37      0             -218250.95      821.07166    
     98200   338.32757     -218755.66      0             -218259.43     -618.9076     
     98300   336.38124     -218748.33      0             -218254.96     -104.84994    
     98400   342.66667     -218750.55      0             -218247.96     -420.65246    
     98500   344.18456     -218751.52      0             -218246.7      -1574.7203    
     98600   342.48392     -218748.86      0             -218246.53     -1629.3025    
     98700   337.73319     -218747.13      0             -218251.77      165.47662    
     98800   335.93945     -218751.54      0             -218258.81     -1103.0468    
     98900   339.29699     -218753.58      0             -218255.93     -579.32886    
     99000   340.66536     -218747.37      0             -218247.71     -175.41665    
     99100   342.14214     -218747.57      0             -218245.74      329.40226    
     99200   342.10759     -218748.68      0             -218246.91      467.55369    
     99300   341.40013     -218750.25      0             -218249.51      386.76848    
     99400   336.49345     -218750.28      0             -218256.74     -632.00864    
     99500   335.49335     -218752.88      0             -218260.8      -486.0336     
     99600   341.43437     -218753.51      0             -218252.72      133.71631    
     99700   341.30927     -218747.53      0             -218246.92     -292.53227    
     99800   340.5609      -218745.02      0             -218245.51      732.46905    
     99900   336.56829     -218741.02      0             -218247.37     -45.428188    
    100000   337.61085     -218747.14      0             -218251.96      668.41569    
    100100   336.54049     -218752.64      0             -218259.03     -394.46293    
    100200   338.59159     -218755.37      0             -218258.75     -92.588571    
    100300   339.46902     -218746.29      0             -218248.39     -752.693      
    100400   337.68848     -218742.45      0             -218247.16     -377.04544    
    100500   341.53992     -218748.96      0             -218248.02      162.41781    
    100600   339.47091     -218749.89      0             -218251.99     -408.81588    
    100700   339.73324     -218752.2       0             -218253.9       441.63745    
    100800   341.18221     -218749.81      0             -218249.4       305.39504    
    100900   341.10114     -218742.45      0             -218242.16      126.04403    
    101000   342.7123      -218743.53      0             -218240.86     -88.10599     
    101100   341.02879     -218748.25      0             -218248.05     -918.38347    
    101200   335.61897     -218745.19      0             -218252.93      786.68213    
    101300   338.67034     -218747.68      0             -218250.94     -227.45882    
    101400   338.88313     -218743.22      0             -218246.18     -557.86073    
    101500   346.80582     -218751.09      0             -218242.42     -522.04365    
    101600   343.53726     -218744.57      0             -218240.7      -715.2874     
    101700   339.80911     -218747.08      0             -218248.67     -454.99011    
    101800   335.98779     -218747.05      0             -218254.25     -1019.718     
    101900   339.19002     -218750.55      0             -218253.06     -571.30012    
    102000   340.57062     -218746.61      0             -218247.09      899.3214     
    102100   342.24226     -218741.46      0             -218239.49      107.16009    
    102200   342.53351     -218742.38      0             -218239.98     -586.82451    
    102300   341.07357     -218747.32      0             -218247.07      228.69751    
    102400   338.35547     -218745.33      0             -218249.06     -752.59584    
    102500   339.42003     -218746.63      0             -218248.8      -214.36738    
    102600   340.91993     -218748.97      0             -218248.94     -537.91427    
    102700   342.54701     -218748.47      0             -218246.05     -1253.6086    
    102800   341.48885     -218742.39      0             -218241.53     -247.50198    
    102900   343.8675      -218747.75      0             -218243.39     -589.54897    
    103000   336.10157     -218746.5       0             -218253.54     -283.68703    
    103100   342.22604     -218755.34      0             -218253.39      202.16435    
    103200   338.02122     -218745.29      0             -218249.51     -79.410383    
    103300   342.9758      -218746.21      0             -218243.17     -595.53805    
    103400   341.88601     -218737.03      0             -218235.58     -304.24374    
    103500   344.29596     -218736.27      0             -218231.28      245.74883    
    103600   346.32294     -218751.34      0             -218243.39     -400.40509    
    103700   338.83998     -218746.21      0             -218249.23      582.92654    
    103800   341.06303     -218752.29      0             -218252.05      367.82305    
    103900   336.28813     -218745.41      0             -218252.17     -553.99696    
    104000   339.78506     -218743.85      0             -218245.48     -483.7175     
    104100   344.73998     -218746.09      0             -218240.45     -405.46635    
    104200   342.15285     -218745.01      0             -218243.16     -396.02869    
    104300   338.82432     -218747.65      0             -218250.69     -313.21126    
    104400   337.98788     -218748.25      0             -218252.52     -247.05072    
    104500   341.1489      -218750.7       0             -218250.33      273.91179    
    104600   339.61002     -218745.13      0             -218247.02     -288.09755    
    104700   339.72172     -218742.65      0             -218244.38      1110.3685    
    104800   341.21832     -218742.67      0             -218242.2      -272.12329    
    104900   340.98891     -218742.82      0             -218242.68      308.88387    
    105000   338.92936     -218747.72      0             -218250.61     -127.50959    
    105100   338.64246     -218750.64      0             -218253.95     -517.96886    
    105200   335.50471     -218745         0             -218252.91     -106.43141    
    105300   339.5077      -218740.14      0             -218242.18      298.8733     
    105400   343.72581     -218744.46      0             -218240.31     -464.12271    
    105500   342.54265     -218748.01      0             -218245.59     -219.44226    
    105600   336.05394     -218743.7       0             -218250.8      -650.64877    
    105700   339.38104     -218748.92      0             -218251.14     -431.13095    
    105800   333.27972     -218738.01      0             -218249.18     -883.45134    
    105900   345.10237     -218745.04      0             -218238.87     -1245.2188    
    106000   342.14231     -218738.07      0             -218236.24      668.8108     
    106100   340.7225      -218743.37      0             -218243.63     -1405.1429    
    106200   340.74182     -218748.09      0             -218248.32     -302.54091    
    106300   340.4088      -218749.08      0             -218249.8      -472.07139    
    106400   342.35451     -218751.93      0             -218249.79     -500.07695    
    106500   340.3497      -218747.11      0             -218247.91     -187.73014    
    106600   340.62868     -218743.55      0             -218243.94     -213.90466    
    106700   343.99348     -218746.96      0             -218242.42     -723.69975    
    106800   340.87393     -218748.47      0             -218248.5      -386.38344    
    106900   335.27118     -218746.46      0             -218254.72     -484.87595    
    107000   333.31736     -218742.93      0             -218254.05     -648.02163    
    107100   339.6263      -218745.48      0             -218247.35     -110.25046    
    107200   343.03632     -218747.4       0             -218244.26     -747.98916    
    107300   342.06036     -218747.7       0             -218245.99     -330.87229    
    107400   339.12374     -218748.53      0             -218251.13      345.64677    
    107500   337.92494     -218749.53      0             -218253.89     -797.6067     
    107600   340.01516     -218749.38      0             -218250.68     -744.7714     
    107700   344.44662     -218745.88      0             -218240.67      84.533561    
    107800   341.21812     -218741.57      0             -218241.1       382.51852    
    107900   342.37284     -218749.08      0             -218246.92      1007.4253    
    108000   338.94754     -218747.88      0             -218250.74     -115.41212    
    108100   342.12437     -218751.79      0             -218250        -295.40808    
    108200   342.07612     -218749.98      0             -218248.25     -973.15978    
    108300   340.81407     -218746.84      0             -218246.96     -746.46641    
    108400   341.70974     -218747.07      0             -218245.88     -533.57863    
    108500   345.03326     -218751.87      0             -218245.8       142.5791     
    108600   339.34379     -218747.46      0             -218249.74     -754.54001    
    108700   336.62093     -218749.37      0             -218255.64     -855.62086    
    108800   336.78913     -218747.08      0             -218253.11     -79.367743    
    108900   343.14054     -218747.61      0             -218244.32     -446.27487    
    109000   341.81715     -218744.73      0             -218243.39     -448.39183    
    109100   340.45204     -218745.42      0             -218246.08     -190.54972    
    109200   339.89829     -218747.89      0             -218249.36      1020.6478    
    109300   340.35074     -218752.97      0             -218253.77      710.67422    
    109400   333.01702     -218749.94      0             -218261.5      -94.370842    
    109500   337.11611     -218760.18      0             -218265.72     -365.08712    
    109600   337.43084     -218750.66      0             -218255.75     -867.22144    
    109700   337.81223     -218746.6       0             -218251.12     -1520.7265    
    109800   339.16263     -218743.51      0             -218246.06     -196.2377     
    109900   342.02413     -218744.92      0             -218243.27     -423.48897    
    110000   344.50179     -218750.39      0             -218245.1      -88.609542    
    110100   335.87934     -218747.34      0             -218254.7      -943.34427    
    110200   337.57414     -218750.97      0             -218255.84     -157.03012    
    110300   341.9291      -218753.31      0             -218251.8      -127.2823     
    110400   340.81081     -218745.8       0             -218245.93      622.26053    
    110500   343.51096     -218746.82      0             -218242.99      1713.9998    
    110600   339.58283     -218745.72      0             -218247.65      405.50767    
    110700   337.50955     -218755.97      0             -218260.94      1114.2887    
    110800   339.67373     -218755.12      0             -218256.92     -25.901951    
    110900   341.38656     -218748.75      0             -218248.03     -1006.1733    
    111000   343.27289     -218747.67      0             -218244.19     -233.13004    
    111100   343.57857     -218748.4       0             -218244.46      184.39002    
    111200   338.1504      -218746.55      0             -218250.58      386.95425    
    111300   340.70511     -218756.83      0             -218257.11      59.305591    
    111400   338.39929     -218752.44      0             -218256.11     -1011.0012    
    111500   339.8343      -218745.12      0             -218246.68     -854.47892    
    111600   339.96227     -218742.91      0             -218244.29     -551.01794    
    111700   342.93295     -218749.88      0             -218246.89     -309.59374    
    111800   336.55722     -218746.9       0             -218253.27     -422.19302    
    111900   335.6633      -218747.74      0             -218255.42      580.82781    
    112000   342.91888     -218754.07      0             -218251.11     -485.54881    
    112100   343.74595     -218745.74      0             -218241.56     -397.71557    
    112200   341.78631     -218744.13      0             -218242.82     -607.12424    
    112300   339.47855     -218746.28      0             -218248.36      360.6476     
    112400   338.56515     -218747.4       0             -218250.82      9.1383246    
    112500   339.82202     -218748.84      0             -218250.42      1079.4259    
    112600   343.26228     -218752.91      0             -218249.44      932.03368    
    112700   340.16896     -218748.02      0             -218249.09     -207.21497    
    112800   339.76072     -218746.9       0             -218248.56     -434.77081    
    112900   338.35588     -218744.38      0             -218248.1      -813.40512    
    113000   339.4171      -218746.49      0             -218248.67     -1195.8788    
    113100   336.82004     -218745.87      0             -218251.86     -2318.6065    
    113200   338.45678     -218751.48      0             -218255.06     -627.43892    
    113300   338.57231     -218748.01      0             -218251.42     -398.71835    
    113400   341.00095     -218743.91      0             -218243.76     -58.196144    
    113500   339.68754     -218740.94      0             -218242.72     -189.69472    
    113600   335.62852     -218740.06      0             -218247.78     -1344.7211    
    113700   338.8293      -218747.81      0             -218250.84     -113.40632    
    113800   342.16396     -218752.21      0             -218250.36      234.71061    
    113900   340.61933     -218748.78      0             -218249.19     -288.5239     
    114000   337.88391     -218744.03      0             -218248.45      173.25658    
    114100   340.20379     -218747.18      0             -218248.2      -549.02894    
    114200   341.65396     -218749.38      0             -218248.27      91.875425    
    114300   342.86999     -218751.83      0             -218248.94      785.32227    
    114400   342.58345     -218751.4       0             -218248.92      1008.8149    
    114500   340.20959     -218746.78      0             -218247.79      268.30467    
    114600   339.11047     -218746.45      0             -218249.07     -76.794578    
    114700   336.48863     -218744.44      0             -218250.91      163.76043    
    114800   338.42494     -218747.91      0             -218251.54     -25.427862    
    114900   340.41992     -218747.66      0             -218248.36     -586.80183    
    115000   338.54767     -218739.52      0             -218242.97      1512.494     
    115100   339.08536     -218738.34      0             -218240.99     -25.802949    
    115200   340.18245     -218748.07      0             -218249.12      864.01185    
    115300   343.90927     -218758.59      0             -218254.18     -166.74435    
    115400   339.40483     -218750.38      0             -218252.57      774.01094    
    115500   338.72311     -218743.26      0             -218246.45      80.711348    
    115600   343.85067     -218746.1       0             -218241.77     -492.40401    
    115700   343.72427     -218748.98      0             -218244.84      944.25579    
    115800   338.23027     -218750.75      0             -218254.66     -458.03046    
    115900   337.50954     -218755.53      0             -218260.5      -972.41528    
    116000   336.87981     -218749.07      0             -218254.96      578.31401    
    116100   339.72076     -218746.35      0             -218248.08     -712.79984    
    116200   337.5024      -218737.71      0             -218242.69     -800.98203    
    116300   343.02151     -218744.25      0             -218241.14     -294.08555    
    116400   342.28426     -218751.55      0             -218249.51     -44.26812     
    116500   337.932       -218750.54      0             -218254.89     -357.14778    
    116600   338.27817     -218748.46      0             -218252.3       265.92179    
    116700   341.84791     -218748.61      0             -218247.22      137.76102    
    116800   342.03625     -218746.06      0             -218244.39     -471.79763    
    116900   338.91378     -218743.18      0             -218246.09     -314.18011    
    117000   337.14008     -218749.88      0             -218255.39     -1455.3579    
    117100   339.36675     -218755.74      0             -218257.98     -320.67884    
    117200   338.5585      -218748.27      0             -218251.7      -840.31415    
    117300   343.60931     -218748.8       0             -218244.82     -342.38586    
    117400   343.63505     -218748.65      0             -218244.63     -539.5349     
    117500   344.29013     -218752.36      0             -218247.39     -680.23888    
    117600   342.40086     -218754.97      0             -218252.77     -919.7905     
    117700   334.84538     -218753.31      0             -218262.19     -708.82684    
    117800   337.57801     -218755.74      0             -218260.61     -532.97213    
    117900   341.34559     -218749.19      0             -218248.54     -374.35853    
    118000   339.87402     -218744.56      0             -218246.06     -188.36529    
    118100   339.63866     -218743.91      0             -218245.76     -726.38498    
    118200   338.89947     -218745.76      0             -218248.69     -441.5209     
    118300   340.99706     -218753.49      0             -218253.35      201.45419    
    118400   338.93651     -218753.45      0             -218256.33     -88.539678    
    118500   335.11566     -218745.47      0             -218253.95     -308.4053     
    118600   340.79044     -218744.52      0             -218244.67     -527.59673    
    118700   341.30226     -218743.67      0             -218243.08     -265.25475    
    118800   340.62952     -218747.6       0             -218248         816.71393    
    118900   336.87158     -218749.1       0             -218255.01      520.76244    
    119000   339.80708     -218753.74      0             -218255.34     -1094.9345    
    119100   336.19993     -218745.18      0             -218252.07     -1022.6201    
    119200   335.26489     -218740.66      0             -218248.92     -15.295582    
    119300   340.89206     -218745.21      0             -218245.22     -430.68529    
    119400   340.73119     -218740.78      0             -218241.03     -718.07633    
    119500   342.45934     -218737.81      0             -218235.52     -1327.787     
    119600   344.1917      -218742.77      0             -218237.94     -221.48718    
    119700   339.36682     -218745.61      0             -218247.85      725.0263     
    119800   337.49616     -218746.95      0             -218251.93      528.95891    
    119900   336.341       -218746.69      0             -218253.38      259.45982    
    120000   339.83405     -218746.94      0             -218248.5      -398.01774    
    120100   344.15778     -218745.26      0             -218240.48     -1847.7193    
    120200   342.47339     -218743.06      0             -218240.75     -963.29185    
    120300   340.41095     -218746.26      0             -218246.97     -1887.4901    
    120400   341.04712     -218747.81      0             -218247.59     -394.5338     
    120500   341.19052     -218748.3       0             -218247.87     -334.31854    
    120600   341.79865     -218750.52      0             -218249.2      -732.1497     
    120700   339.85432     -218752.87      0             -218254.4      -1152.0018    
    120800   339.62312     -218755.14      0             -218257.01     -290.04446    
    120900   340.62417     -218752.94      0             -218253.34      77.623173    
    121000   341.35717     -218745.3       0             -218244.62     -536.85324    
    121100   341.35867     -218743.18      0             -218242.51      204.29702    
    121200   342.33365     -218748.82      0             -218246.72     -882.00084    
    121300   338.5133      -218749.3       0             -218252.8      -1853.4882    
    121400   340.44888     -218752.26      0             -218252.92     -1508.1335    
    121500   340.57985     -218750.32      0             -218250.79     -877.1003     
    121600   343.14489     -218750.52      0             -218247.22     -401.53257    
    121700   339.36366     -218741.73      0             -218243.98     -584.99279    
    121800   345.15918     -218743.16      0             -218236.91     -1064.1438    
    121900   343.63036     -218739.85      0             -218235.84     -72.454022    
    122000   341.188       -218746.06      0             -218245.63     -980.49158    
    122100   342.56196     -218752.97      0             -218250.53      800.97879    
    122200   338.45366     -218748.34      0             -218251.93     -435.5606     
    122300   334.655       -218741.14      0             -218250.3       43.900674    
    122400   343.07544     -218746.23      0             -218243.04     -334.43978    
    122500   340.59593     -218737.75      0             -218238.19     -520.38104    
    122600   342.48607     -218745.64      0             -218243.31     -1316.9505    
    122700   340.84433     -218752.61      0             -218252.69     -1112.4844    
    122800   338.66987     -218749.62      0             -218252.89      439.15223    
    122900   336.26525     -218742.09      0             -218248.88     -276.37208    
    123000   341.81504     -218744.38      0             -218243.03     -158.64889    
    123100   340.2251      -218741         0             -218241.99     -1469.9316    
    123200   338.98954     -218747.68      0             -218250.48     -1717.7878    
    123300   337.633       -218751.61      0             -218256.4      -1526.2476    
    123400   340.93237     -218752.96      0             -218252.91     -1247.2093    
    123500   341.22831     -218745.88      0             -218245.39     -1247.3995    
    123600   341.47352     -218745.21      0             -218244.37     -407.30106    
    123700   337.58243     -218742.42      0             -218247.29     -185.74263    
    123800   339.59346     -218749.05      0             -218250.96     -1214.1527    
    123900   341.63848     -218757.26      0             -218256.17     -1204.3615    
    124000   335.54245     -218754.81      0             -218262.67     -307.86286    
    124100   335.89533     -218749.25      0             -218256.59     -200.0543     
    124200   342.05883     -218750.57      0             -218248.86     -263.17684    
    124300   342.36954     -218748.72      0             -218246.56     -152.45148    
    124400   339.63903     -218746.12      0             -218247.97     -319.42381    
    124500   338.5584      -218745.49      0             -218248.92      580.70953    
    124600   340.36435     -218751.41      0             -218252.19      193.87649    
    124700   339.50806     -218753.07      0             -218255.11     -940.31331    
    124800   341.73181     -218752.66      0             -218251.44      877.52311    
    124900   340.93693     -218742.62      0             -218242.56     -364.15797    
    125000   342.3963      -218743.21      0             -218241.01     -938.77958    
    125100   341.54839     -218746.42      0             -218245.46     -1094.0584    
    125200   339.77728     -218747.8       0             -218249.44     -487.16244    
    125300   339.36046     -218747.5       0             -218249.76     -262.25202    
    125400   344.20209     -218752.21      0             -218247.36     -512.24518    
    125500   343.04453     -218747.91      0             -218244.76      141.37772    
    125600   339.51118     -218741.61      0             -218243.65      717.85216    
    125700   338.34924     -218744.21      0             -218247.95      726.2969     
    125800   338.16715     -218749.44      0             -218253.44     -546.58606    
    125900   338.90939     -218752.75      0             -218255.67     -1378.3426    
    126000   339.4552      -218748.89      0             -218251        -649.48548    
    126100   342.18804     -218744.44      0             -218242.55     -1040.6886    
    126200   343.8546      -218746.59      0             -218242.26     -1321.4412    
    126300   342.31846     -218750.06      0             -218247.97     -953.8211     
    126400   337.19174     -218747.94      0             -218253.38      18.495056    
    126500   340.25106     -218751.45      0             -218252.4      -1164.5049    
    126600   342.46656     -218752.4       0             -218250.1      -763.42445    
    126700   339.00556     -218745.59      0             -218248.36     -538.18284    
    126800   341.54529     -218746.78      0             -218245.83     -683.2959     
    126900   342.69429     -218744.04      0             -218241.41     -627.8483     
    127000   343.96022     -218742.28      0             -218237.79     -2090.0194    
    127100   341.70575     -218745.86      0             -218244.68     -1382.9618    
    127200   340.6438      -218750.87      0             -218251.24     -571.11426    
    127300   337.84741     -218747.42      0             -218251.89      6.0751878    
    127400   341.11326     -218749.86      0             -218249.54     -222.26347    
    127500   344.37879     -218745.39      0             -218240.29     -1075.9767    
    127600   346.52019     -218745.96      0             -218237.71     -1128.9549    
    127700   343.79491     -218747.36      0             -218243.11     -54.060664    
    127800   343.73381     -218750.5       0             -218246.34     -1058.3044    
    127900   340.79927     -218748.89      0             -218249.04      773.69522    
    128000   335.87305     -218744.2       0             -218251.57      438.66652    
    128100   340.52945     -218751.19      0             -218251.73     -1248.844     
    128200   342.93096     -218751.34      0             -218248.35     -880.15717    
    128300   345.20811     -218748.79      0             -218242.47     -172.15378    
    128400   342.14355     -218743.55      0             -218241.72     -1496.8306    
    128500   337.44964     -218744.8       0             -218249.86      182.05411    
    128600   336.12452     -218747.76      0             -218254.76     -548.65321    
    128700   339.2888      -218751.21      0             -218253.57     -576.75719    
    128800   340.52853     -218749.53      0             -218250.07     -1333.8413    
    128900   342.06295     -218749.25      0             -218247.54     -1582.8785    
    129000   343.15084     -218749.22      0             -218245.92      38.620671    
    129100   344.10891     -218749.46      0             -218244.75     -1069.601     
    129200   338.43842     -218742.61      0             -218246.21     -1018.4986    
    129300   342.17226     -218752.15      0             -218250.28     -419.71193    
    129400   339.59334     -218750.37      0             -218252.28      489.77792    
    129500   337.31834     -218748.27      0             -218253.52     -598.20971    
    129600   341.07246     -218748.99      0             -218248.74     -1048.7309    
    129700   341.23786     -218742.3       0             -218241.8      -914.65084    
    129800   342.64939     -218743.88      0             -218241.31      1029.8202    
    129900   336.68325     -218744.72      0             -218250.9      -84.735965    
    130000   337.12014     -218748.02      0             -218253.56      512.13164    
    130100   340.89658     -218751.24      0             -218251.25      358.29944    
    130200   340.41295     -218745.56      0             -218246.27     -567.6785     
    130300   341.78854     -218743.34      0             -218242.04     -560.92054    
    130400   346.44093     -218749.14      0             -218241.01     -756.50482    
    130500   337.50096     -218743.84      0             -218248.82     -1241.8143    
    130600   344.11376     -218759.04      0             -218254.32      32.515884    
    130700   338.42934     -218749.13      0             -218252.75     -39.409826    
    130800   341.03806     -218745.67      0             -218245.47     -1086.9298    
    130900   343.65352     -218746.63      0             -218242.59      472.81464    
    131000   342.33106     -218746.78      0             -218244.68     -233.05411    
    131100   344.94703     -218753.08      0             -218247.15      37.72073     
    131200   340.59461     -218747.66      0             -218248.11      857.93895    
    131300   336.9764      -218744.94      0             -218250.69     -997.24961    
    131400   337.88326     -218748.29      0             -218252.71     -871.98171    
    131500   338.8587      -218748.69      0             -218251.68     -109.91838    
    131600   341.05021     -218745.61      0             -218245.39      936.82019    
    131700   340.20999     -218739.74      0             -218240.75     -604.48809    
    131800   341.53067     -218745.07      0             -218244.14     -26.93434     
    131900   337.13742     -218748.1       0             -218253.61      90.54784     
    132000   338.88148     -218749.91      0             -218252.87     -710.83315    
    132100   339.57881     -218746.79      0             -218248.73     -166.39134    
    132200   343.01639     -218747.32      0             -218244.21     -1186.9155    
    132300   343.21892     -218744.8       0             -218241.39     -55.062789    
    132400   343.82303     -218745.62      0             -218241.33     -704.0564     
    132500   339.53086     -218747.41      0             -218249.42     -934.46501    
    132600   338.58433     -218750.54      0             -218253.93      227.31108    
    132700   337.84702     -218747.69      0             -218252.16     -93.098215    
    132800   338.07312     -218740.57      0             -218244.72     -235.88155    
    132900   344.81781     -218745.86      0             -218240.11     -343.81803    
    133000   345.55028     -218748.99      0             -218242.17      482.51375    
    133100   339.00629     -218742.51      0             -218245.28      797.55717    
    133200   339.44459     -218745.11      0             -218247.24     -963.45833    
    133300   339.69456     -218748.29      0             -218250.06     -93.791703    
    133400   336.36597     -218749.49      0             -218256.14      62.876477    
    133500   338.46425     -218758.5       0             -218262.07     -578.32912    
    133600   332.18085     -218743.26      0             -218256.04      330.19966    
    133700   340.68991     -218747.81      0             -218248.11      758.29759    
    133800   340.95786     -218745.08      0             -218244.99     -80.077322    
    133900   342.68107     -218746.38      0             -218243.76     -257.18744    
    134000   339.63161     -218746.3       0             -218248.16      289.59029    
    134100   334.92966     -218747.35      0             -218256.1       834.0027     
    134200   341.36872     -218756.21      0             -218255.52      1009.619     
    134300   338.98499     -218745.73      0             -218248.53      247.12416    
    134400   342.22905     -218744.83      0             -218242.88     -120.16546    
    134500   341.76501     -218745.5       0             -218244.23     -179.07413    
    134600   338.64842     -218744.66      0             -218247.96     -533.32221    
    134700   343.34168     -218756.09      0             -218252.51     -599.29762    
    134800   335.06487     -218746.53      0             -218255.09     -653.37181    
    134900   335.71215     -218741.03      0             -218248.64     -1315.8256    
    135000   342.67257     -218743.55      0             -218240.95     -512.59131    
    135100   344.15964     -218747.56      0             -218242.78      43.483992    
    135200   342.18028     -218751.3       0             -218249.42     -1160.232     
    135300   340.40633     -218752.08      0             -218252.8       463.53619    
    135400   336.02657     -218745.65      0             -218252.8       374.06746    
    135500   341.26935     -218750.66      0             -218250.12      1130.7983    
    135600   340.41115     -218748.09      0             -218248.81      398.84951    
    135700   339.14475     -218745         0             -218247.57     -201.44123    
    135800   338.54845     -218744.02      0             -218247.47     -1063.0692    
    135900   342.86461     -218752.79      0             -218249.91     -381.18136    
    136000   338.04918     -218748.45      0             -218252.63     -738.12034    
    136100   337.11003     -218745.61      0             -218251.17     -35.794528    
    136200   339.7306      -218741.96      0             -218243.67     -2161.2651    
    136300   343.95564     -218744.25      0             -218239.76     -1.6908514    
    136400   340.53837     -218743.13      0             -218243.66      183.36821    
    136500   338.54927     -218751.08      0             -218254.53      1005.2476    
    136600   339.72339     -218752.69      0             -218254.41      465.14399    
    136700   340.62893     -218748.8       0             -218249.19      205.52122    
    136800   340.55557     -218743.94      0             -218244.45     -506.26796    
    136900   341.21683     -218744.14      0             -218243.67      193.25375    
    137000   340.67726     -218752.03      0             -218252.35      255.94091    
    137100   336.63461     -218751.78      0             -218258.03     -856.96301    
    137200   337.3783      -218749.04      0             -218254.2      -760.60026    
    137300   339.09043     -218744.85      0             -218247.5      -1025.4809    
    137400   341.66783     -218746.53      0             -218245.4       372.41423    
    137500   341.45202     -218746.65      0             -218245.84      882.15416    
    137600   340.42123     -218747.39      0             -218248.09     -428.38811    
    137700   340.78731     -218753.64      0             -218253.8      -451.02501    
    137800   334.09098     -218752.72      0             -218262.71     -726.58529    
    137900   335.83582     -218751.07      0             -218258.5      -943.28203    
    138000   336.99273     -218745.57      0             -218251.3       29.540375    
    138100   342.30746     -218750.35      0             -218248.29      359.2895     
    138200   339.63797     -218744.56      0             -218246.41     -511.76123    
    138300   342.96789     -218748.05      0             -218245.02     -161.11538    
    138400   342.17713     -218748.03      0             -218246.15     -174.78469    
    138500   336.13694     -218744.37      0             -218251.35      653.77799    
    138600   340.43756     -218754.58      0             -218255.25     -447.34151    
    138700   337.87245     -218749.43      0             -218253.87     -631.78551    
    138800   339.18292     -218741.12      0             -218243.64     -633.38533    
    138900   343.32365     -218744.47      0             -218240.91     -655.23672    
    139000   341.96641     -218746.53      0             -218244.96     -38.877432    
    139100   340.49241     -218750.34      0             -218250.93     -215.64968    
    139200   339.05472     -218749.23      0             -218251.93     -183.88835    
    139300   337.68451     -218745.49      0             -218250.2      -55.922461    
    139400   338.35056     -218744.69      0             -218248.42     -947.736      
    139500   335.17317     -218738.76      0             -218247.16     -262.54809    
    139600   339.49757     -218739.87      0             -218241.93     -213.81087    
    139700   342.99916     -218739.49      0             -218236.41     -517.0046     
    139800   340.67388     -218740.06      0             -218240.39     -303.17879    
    139900   339.82943     -218748.6       0             -218250.16     -1045.0926    
    140000   338.45031     -218748.16      0             -218251.75     -706.05977    
    140100   339.64696     -218746.81      0             -218248.65      125.76851    
    140200   337.27084     -218737.52      0             -218242.84      150.31533    
    140300   345.52593     -218743.27      0             -218236.48     -55.962174    
    140400   342.54779     -218745.97      0             -218243.55     -1052.9312    
    140500   338.77962     -218748.79      0             -218251.89     -1853.1372    
    140600   339.93945     -218749.7       0             -218251.1      -9.2737037    
    140700   339.7147      -218744.86      0             -218246.6      -156.03825    
    140800   341.91084     -218743.23      0             -218241.74      171.68483    
    140900   342.04397     -218745.95      0             -218244.27      699.41438    
    141000   341.02795     -218754.4       0             -218254.21      1181.1921    
    141100   333.18392     -218744.57      0             -218255.89      256.9934     
    141200   340.65312     -218750.36      0             -218250.72      126.63407    
    141300   341.41549     -218748.04      0             -218247.28      279.37239    
    141400   339.84806     -218744.98      0             -218246.52     -359.40649    
    141500   342.72331     -218749.68      0             -218247         243.03778    
    141600   339.54673     -218748.5       0             -218250.48      174.98497    
    141700   335.31327     -218754.25      0             -218262.44     -916.27897    
    141800   335.29283     -218751.98      0             -218260.21     -647.26473    
    141900   337.24584     -218747.29      0             -218252.64     -1007.2795    
    142000   337.72405     -218743.16      0             -218247.81     -540.16892    
    142100   343.09547     -218747.75      0             -218244.52      149.4995     
    142200   339.19753     -218746.16      0             -218248.66     -873.5221     
    142300   338.68329     -218754.19      0             -218257.44      735.01156    
    142400   335.87029     -218753.17      0             -218260.54      380.38588    
    142500   337.05242     -218742.27      0             -218247.91     -758.98806    
    142600   340.09034     -218742.71      0             -218243.89     -524.12748    
    142700   340.60137     -218745.19      0             -218245.63      275.93247    
    142800   340.53647     -218749.8       0             -218250.33      277.56766    
    142900   337.675       -218750.42      0             -218255.14     -1268.9516    
    143000   335.85128     -218747.46      0             -218254.86     -1481.6127    
    143100   337.23492     -218738.11      0             -218243.48     -1654.3038    
    143200   342.27426     -218744.05      0             -218242.03     -1747.0325    
    143300   338.68156     -218743.95      0             -218247.2      -646.77675    
    143400   338.84147     -218749.92      0             -218252.94      54.679319    
    143500   339.1673      -218749.65      0             -218252.19      879.84084    
    143600   340.31998     -218748.01      0             -218248.86     -177.18919    
    143700   348.5497      -218749.05      0             -218237.83     -396.54143    
    143800   344.58155     -218740.62      0             -218235.22      840.27089    
    143900   341.95428     -218742.7       0             -218241.15      330.24526    
    144000   340.67888     -218747.95      0             -218248.27     -784.23382    
    144100   338.59756     -218748.33      0             -218251.7      -1630.9482    
    144200   338.44192     -218747.82      0             -218251.42     -1250.078     
    144300   342.11803     -218747.77      0             -218245.98     -1133.9149    
    144400   341.49978     -218739.32      0             -218238.44     -1971.9764    
    144500   339.5936      -218738.15      0             -218240.06     -374.80963    
    144600   339.56982     -218747.1       0             -218249.05     -1112.0962    
    144700   339.64875     -218749.66      0             -218251.49     -865.67777    
    144800   336.35419     -218743.43      0             -218250.09     -1581.6965    
    144900   339.58602     -218745.77      0             -218247.7      -575.28621    
    145000   342.2839      -218748.28      0             -218246.25     -899.40111    
    145100   340.92707     -218743.49      0             -218243.44     -631.13772    
    145200   342.7821      -218746.77      0             -218244.01     -986.27066    
    145300   339.84151     -218748.37      0             -218249.92     -134.1619     
    145400   337.18471     -218750.43      0             -218255.88     -200.11344    
    145500   335.22238     -218745.62      0             -218253.94     -1293.8963    
    145600   338.60866     -218742.51      0             -218245.87     -1227.027     
    145700   342.24501     -218744.02      0             -218242.05     -367.96308    
    145800   342.06676     -218746.34      0             -218244.63     -556.4571     
    145900   336.21997     -218743.05      0             -218249.91     -1377.6424    
    146000   339.53908     -218751.3       0             -218253.29     -581.74449    
    146100   338.94805     -218749.32      0             -218252.18     -755.84577    
    146200   341.51786     -218743.05      0             -218242.14     -515.12084    
    146300   343.58523     -218744.7       0             -218240.76      772.83102    
    146400   341.47335     -218747.76      0             -218246.92      248.198      
    146500   339.29619     -218748.72      0             -218251.07      278.58021    
    146600   338.80904     -218747.57      0             -218250.63     -565.06261    
    146700   336.22358     -218743.29      0             -218250.14      123.97692    
    146800   343.48151     -218747.74      0             -218243.96      180.14909    
    146900   344.11577     -218741.01      0             -218236.29     -148.22471    
    147000   345.12401     -218747.41      0             -218241.21     -678.60873    
    147100   340.50838     -218749.23      0             -218249.8      -904.88373    
    147200   340.25734     -218749.27      0             -218250.21     -847.68478    
    147300   341.42285     -218749.53      0             -218248.76     -251.2749     
    147400   339.61013     -218744.15      0             -218246.04     -464.33159    
    147500   343.53478     -218745.93      0             -218242.06     -1074.8111    
    147600   340.60688     -218740.48      0             -218240.91      53.50659     
    147700   341.56312     -218748.59      0             -218247.61      424.68727    
    147800   338.16904     -218750.49      0             -218254.49      53.650785    
    147900   338.56716     -218751         0             -218254.42     -1079.3464    
    148000   341.49328     -218749.13      0             -218248.25     -199.09191    
    148100   341.02972     -218743.93      0             -218243.74     -400.33448    
    148200   340.61111     -218744.18      0             -218244.6      -692.77777    
    148300   339.59093     -218744.64      0             -218246.56     -908.76888    
    148400   341.95111     -218749.16      0             -218247.62     -162.38834    
    148500   336.54138     -218743.25      0             -218249.64     -453.58368    
    148600   337.54532     -218745.39      0             -218250.3      -516.60711    
    148700   341.58842     -218751.81      0             -218250.8       148.70623    
    148800   342.31234     -218747.93      0             -218245.86     -290.37053    
    148900   345.29777     -218748.56      0             -218242.1      -934.723      
    149000   342.38969     -218747.72      0             -218245.54     -1717.4647    
    149100   336.3757      -218748.2       0             -218254.83     -1148.6594    
    149200   337.46342     -218749.22      0             -218254.26     -1460.2665    
    149300   337.79123     -218745.38      0             -218249.93      330.77207    
    149400   339.42483     -218743.44      0             -218245.6      -505.04254    
    149500   343.08676     -218746.98      0             -218243.77     -276.96378    
    149600   337.84488     -218750.59      0             -218255.07     -1349.4005    
    149700   340.81271     -218759.25      0             -218259.37     -601.36948    
    149800   338.83363     -218749.64      0             -218252.67     -1210.3406    
    149900   343.69029     -218751.13      0             -218247.03     -380.96691    
    150000   343.20598     -218748.79      0             -218245.4      -1855.8642    
    150100   338.0181      -218743.37      0             -218247.59     -1032.7892    
    150200   336.62326     -218750.78      0             -218257.05      192.27875    
    150300   338.18844     -218755.65      0             -218259.63     -1240.8275    
    150400   337.83834     -218749.51      0             -218253.99      128.79585    
    150500   339.96075     -218747.76      0             -218249.13     -755.18224    
    150600   340.30921     -218746.52      0             -218247.38     -347.61772    
    150700   340.92493     -218749.12      0             -218249.08     -322.9928     
    150800   338.99504     -218750.09      0             -218252.89      64.42281     
    150900   334.85215     -218750.99      0             -218259.86      197.44509    
    151000   335.83754     -218748.68      0             -218256.1      -1572.3668    
    151100   341.37343     -218747.98      0             -218247.29     -589.48913    
    151200   339.08403     -218742.81      0             -218245.47     -751.06063    
    151300   337.44809     -218741.66      0             -218246.72     -813.5786     
    151400   338.1076      -218747.15      0             -218251.24     -1583.4048    
    151500   337.94749     -218754.8       0             -218259.13     -281.65019    
    151600   337.49302     -218753.14      0             -218258.14     -337.76479    
    151700   337.49522     -218741.9       0             -218246.89     -278.95992    
    151800   344.58675     -218750.1       0             -218244.69     -149.47611    
    151900   341.69325     -218749.08      0             -218247.92     -315.37005    
    152000   338.63826     -218749.13      0             -218252.45     -413.27029    
    152100   335.4208      -218748.08      0             -218256.11     -329.67824    
    152200   338.20847     -218746.13      0             -218250.08     -467.28407    
    152300   343.50566     -218745.32      0             -218241.49     -690.96388    
    152400   342.50762     -218746.18      0             -218243.81     -999.25704    
    152500   340.96922     -218749.07      0             -218248.97     -1215.6443    
    152600   337.95833     -218748.38      0             -218252.69     -1114.6415    
    152700   341.6263      -218754.87      0             -218253.8      -488.26248    
    152800   339.39976     -218745.71      0             -218247.91     -2090.5735    
    152900   344.21511     -218746.04      0             -218241.18      324.93116    
    153000   343.47106     -218747.45      0             -218243.67      17.721763    
    153100   340.67052     -218750.74      0             -218251.07      6.2106551    
    153200   336.20321     -218747.45      0             -218254.34     -587.24648    
    153300   336.91664     -218745.65      0             -218251.49     -28.098755    
    153400   342.3175      -218749.65      0             -218247.57     -615.40951    
    153500   340.36271     -218746.22      0             -218247.01     -482.99075    
    153600   337.32971     -218742.63      0             -218247.87     -215.20495    
    153700   337.39683     -218744.68      0             -218249.82      254.22223    
    153800   341.06845     -218753.97      0             -218253.72     -81.269241    
    153900   337.92013     -218749.93      0             -218254.3      -1224.1816    
    154000   337.56076     -218744.45      0             -218249.34     -992.20474    
    154100   343.06449     -218745.24      0             -218242.06     -490.1408     
    154200   340.98476     -218743.44      0             -218243.31     -397.71199    
    154300   343.25227     -218753.9       0             -218250.44     -347.21977    
    154400   335.64233     -218749.16      0             -218256.86      453.28867    
    154500   334.67592     -218745.46      0             -218254.59      169.13659    
    154600   341.33492     -218750.46      0             -218249.82      772.7514     
    154700   343.1354      -218749.69      0             -218246.41     -870.44843    
    154800   341.93551     -218748.52      0             -218247        -360.12624    
    154900   340.04211     -218754.62      0             -218255.88      243.55607    
    155000   338.88598     -218755.94      0             -218258.89     -2003.6356    
    155100   340.13956     -218751.26      0             -218252.37     -1459.3487    
    155200   340.5142      -218745.98      0             -218246.54     -776.22828    
    155300   338.60867     -218742.15      0             -218245.51     -1965.8585    
    155400   341.44341     -218748.83      0             -218248.03     -1256.1586    
    155500   339.28679     -218749.73      0             -218252.09     -1598.8216    
    155600   337.06112     -218752.01      0             -218257.63     -1345.9796    
    155700   334.93172     -218755.21      0             -218263.96     -966.00925    
    155800   335.3561      -218750.38      0             -218258.51     -283.88745    
    155900   338.45375     -218747.02      0             -218250.6       423.30194    
    156000   342.67814     -218750.26      0             -218247.65     -29.522703    
    156100   342.17162     -218747.92      0             -218246.05     -249.09422    
    156200   341.23289     -218747.02      0             -218246.53     -755.02891    
    156300   339.09085     -218750.75      0             -218253.4      -846.96489    
    156400   340.14913     -218757.2       0             -218258.3      -1043.3398    
    156500   338.19284     -218750.18      0             -218254.15     -486.31177    
    156600   339.04639     -218743.88      0             -218246.59      791.47165    
    156700   339.4544      -218743.2       0             -218245.32     -26.513513    
    156800   338.39752     -218743.62      0             -218247.29     -795.32152    
    156900   340.45116     -218751.52      0             -218252.17     -687.11262    
    157000   334.30872     -218749.04      0             -218258.7      -270.52525    
    157100   337.47324     -218749.88      0             -218254.91     -932.52723    
    157200   341.94272     -218745.63      0             -218244.1      -1329.1679    
    157300   342.77607     -218746.81      0             -218244.06      489.3426     
    157400   341.4706      -218750.94      0             -218250.1      -530.72038    
    157500   340.14812     -218752.88      0             -218253.98      936.41096    
    157600   339.96914     -218751.94      0             -218253.31      322.05281    
    157700   345.76591     -218749.2       0             -218242.06     -1319.8072    
    157800   343.62859     -218744.41      0             -218240.41     -222.09585    
    157900   342.61287     -218748.11      0             -218245.6       301.36411    
    158000   336.76686     -218745.49      0             -218251.55     -950.3953     
    158100   339.49843     -218749.87      0             -218251.92     -1416.996     
    158200   338.7598      -218746         0             -218249.14     -604.21872    
    158300   344.03701     -218750.25      0             -218245.64     -782.48821    
    158400   336.28106     -218739.91      0             -218246.68      451.45334    
    158500   335.89628     -218746.18      0             -218253.52      399.36138    
    158600   339.46497     -218755.2       0             -218257.3       294.74553    
    158700   337.92037     -218749.75      0             -218254.11      448.04892    
    158800   343.73212     -218750.75      0             -218246.59      52.929312    
    158900   341.27938     -218745.27      0             -218244.71      17.87898     
    159000   342.00585     -218747.85      0             -218246.23      648.79213    
    159100   341.41609     -218758.76      0             -218258        -1638.8275    
    159200   336.81343     -218752.18      0             -218258.17     -1485.1836    
    159300   341.27674     -218751.8       0             -218251.25     -2129.9949    
    159400   340.47827     -218745.82      0             -218246.44     -753.20283    
    159500   342.19456     -218746.17      0             -218244.27     -35.691416    
    159600   339.03082     -218745.48      0             -218248.21     -781.29278    
    159700   337.55129     -218754         0             -218258.91      481.90245    
    159800   333.41063     -218748.08      0             -218259.06     -858.8845     
    159900   338.19794     -218749.03      0             -218252.99      623.09138    
    160000   338.70771     -218745.67      0             -218248.88      828.09284    
    160100   340.86722     -218747.38      0             -218247.42     -339.8685     
    160200   340.60515     -218747.8       0             -218248.23      508.53434    
    160300   340.11778     -218753.01      0             -218254.16     -211.80339    
    160400   337.31976     -218756.1       0             -218261.35     -308.65807    
    160500   338.3222      -218753.83      0             -218257.61     -755.30183    
    160600   341.59073     -218750.4       0             -218249.39     -183.19136    
    160700   339.46963     -218746.21      0             -218248.31     -532.24886    
    160800   339.78222     -218747.55      0             -218249.18     -621.70826    
    160900   340.18554     -218750.88      0             -218251.93     -1822.8564    
    161000   337.89253     -218754.28      0             -218258.68     -1072.8791    
    161100   336.17293     -218753.51      0             -218260.44     -1056.9776    
    161200   338.42792     -218747.27      0             -218250.89     -312.0199     
    161300   342.23526     -218748.82      0             -218246.85     -810.44861    
    161400   341.93435     -218749.52      0             -218248        -975.98826    
    161500   341.54095     -218753.34      0             -218252.4      -406.46709    
    161600   339.21576     -218756.1       0             -218258.57      285.25524    
    161700   335.66234     -218754.42      0             -218262.1      -437.82898    
    161800   336.00292     -218749.49      0             -218256.67      518.46521    
    161900   343.03767     -218750.66      0             -218247.52     -559.58335    
    162000   340.836       -218745.93      0             -218246.02     -807.59872    
    162100   339.2171      -218747.46      0             -218249.92      322.61449    
    162200   336.70804     -218750.8       0             -218256.95     -2075.2881    
    162300   337.84345     -218753.23      0             -218257.71     -1926.1708    
    162400   341.55709     -218749.66      0             -218248.69     -479.81328    
    162500   342.10579     -218744.71      0             -218242.94     -1105.5711    
    162600   341.94764     -218747.8       0             -218246.26     -545.92465    
    162700   339.73529     -218750.48      0             -218252.19      144.11925    
    162800   337.282       -218751.54      0             -218256.85     -79.40359     
    162900   337.14476     -218749.95      0             -218255.46     -383.27721    
    163000   341.66454     -218746.8       0             -218245.67      401.09702    
    163100   342.81923     -218746.18      0             -218243.36      522.23914    
    163200   342.71703     -218749.08      0             -218246.41     -133.8733     
    163300   339.91897     -218749.76      0             -218251.2       794.63818    
    163400   337.09809     -218748.12      0             -218253.69      478.1513     
    163500   339.96383     -218751.8       0             -218253.17      1025.2638    
    163600   341.04475     -218751.28      0             -218251.07     -529.09235    
    163700   336.163       -218743.12      0             -218250.07     -1492.2671    
    163800   339.74616     -218744.58      0             -218246.27      29.032258    
    163900   343.58925     -218744.45      0             -218240.51     -371.03277    
    164000   342.50428     -218742.85      0             -218240.49     -1487.2592    
    164100   339.60105     -218747.9       0             -218249.81     -272.51214    
    164200   339.81766     -218752.57      0             -218254.15     -464.25169    
    164300   338.26452     -218749.44      0             -218253.3      -239.50981    
    164400   338.25643     -218744.12      0             -218248         148.23713    
    164500   345.41363     -218745.46      0             -218238.83      1706.9796    
    164600   344.49183     -218744.65      0             -218239.38      453.41432    
    164700   343.47363     -218749.36      0             -218245.58      154.96603    
    164800   340.34933     -218748.25      0             -218249.06     -374.25467    
    164900   340.03381     -218751.22      0             -218252.48     -1737.9344    
    165000   339.46124     -218751.29      0             -218253.4      -1272.8124    
    165100   339.53468     -218746.56      0             -218248.56     -59.463402    
    165200   340.36043     -218740.76      0             -218241.55     -124.17386    
    165300   341.9979      -218742.97      0             -218241.36     -535.63763    
    165400   340.06239     -218751.24      0             -218252.46     -1464.9877    
    165500   337.5616      -218750.56      0             -218255.46     -1456.6861    
    165600   339.70494     -218751.09      0             -218252.84      106.59402    
    165700   341.56615     -218748.19      0             -218247.21      400.31041    
    165800   345.8333      -218752.1       0             -218244.86     -589.82975    
    165900   340.95638     -218749.77      0             -218249.69      145.17954    
    166000   336.96378     -218752.85      0             -218258.62      310.04084    
    166100   337.15986     -218752.19      0             -218257.67     -76.26218     
    166200   336.87148     -218744.81      0             -218250.72      132.34681    
    166300   339.20825     -218744.93      0             -218247.41     -520.32025    
    166400   339.4551      -218744.98      0             -218247.1      -605.55946    
    166500   343.63462     -218753.92      0             -218249.91     -27.838825    
    166600   340.74111     -218752.47      0             -218252.7      -112.85986    
    166700   339.03261     -218755.58      0             -218258.32     -1518.55      
    166800   333.83009     -218752.66      0             -218263.02     -1621.526     
    166900   340.3948      -218754.95      0             -218255.69      461.13553    
    167000   340.65576     -218749.03      0             -218249.39     -159.43218    
    167100   339.75737     -218745.28      0             -218246.96      769.55093    
    167200   339.6491      -218744.84      0             -218246.67      265.09249    
    167300   337.40348     -218749.13      0             -218254.25     -503.6645     
    167400   338.16096     -218755.65      0             -218259.67     -376.48579    
    167500   338.18404     -218753.91      0             -218257.89     -666.60301    
    167600   342.04196     -218750.54      0             -218248.87     -297.50672    
    167700   343.53668     -218749.3       0             -218245.43     -617.84032    
    167800   341.54462     -218747.61      0             -218246.66      221.89725    
    167900   340.69739     -218750.54      0             -218250.84     -134.72732    
    168000   339.64164     -218753.99      0             -218255.83     -1050.9692    
    168100   339.33796     -218754.12      0             -218256.4      -965.3679     
    168200   340.02099     -218746.24      0             -218247.53     -1558.5259    
    168300   341.89836     -218743.7       0             -218242.23     -824.55587    
    168400   339.23963     -218742.35      0             -218244.78     -176.70115    
    168500   337.62508     -218748.06      0             -218252.86     -548.80237    
    168600   335.32407     -218746.29      0             -218254.47      55.242583    
    168700   335.20065     -218744.09      0             -218252.45     -458.93916    
    168800   340.5934      -218750.53      0             -218250.98     -587.50788    
    168900   338.24805     -218745.32      0             -218249.21     -935.4409     
    169000   342.83561     -218746.53      0             -218243.69      1027.5869    
    169100   340.39912     -218741.28      0             -218242.01      413.20188    
    169200   340.91034     -218748.7       0             -218248.68     -477.5281     
    169300   339.25791     -218751.85      0             -218254.25     -1773.6088    
    169400   340.64438     -218752.99      0             -218253.36     -1541.1753    
    169500   338.73668     -218745.7       0             -218248.87     -1024.7509    
    169600   345.67966     -218745.42      0             -218238.41     -884.76379    
    169700   343.53219     -218742.12      0             -218238.26     -899.32825    
    169800   340.99111     -218743.81      0             -218243.67     -1220.4093    
    169900   343.1477      -218753.44      0             -218250.14     -723.82246    
    170000   335.35493     -218746.56      0             -218254.69      232.92684    
    170100   339.96031     -218751.44      0             -218252.82      225.95434    
    170200   340.38019     -218744.65      0             -218245.41     -342.89615    
    170300   345.03745     -218743.12      0             -218237.05     -60.913886    
    170400   344.93483     -218747.03      0             -218241.11     -1150.6483    
    170500   340.40632     -218745.39      0             -218246.11     -823.32415    
    170600   335.96333     -218742.87      0             -218250.11      200.16051    
    170700   337.34207     -218748.53      0             -218253.74     -552.96337    
    170800   335.5336      -218750.17      0             -218258.04     -1221.6598    
    170900   339.49176     -218751.7       0             -218253.76     -979.82932    
    171000   341.44307     -218745.57      0             -218244.77     -1226.2835    
    171100   343.36877     -218747.88      0             -218244.25     -1406.2047    
    171200   341.16663     -218750.93      0             -218250.53     -348.45969    
    171300   338.34726     -218750.93      0             -218254.67     -649.97235    
    171400   338.26924     -218750.16      0             -218254.02     -343.35472    
    171500   338.7708      -218749.17      0             -218252.29     -805.45908    
    171600   340.16695     -218749.82      0             -218250.89      567.94014    
    171700   340.69618     -218750.07      0             -218250.37     -119.92929    
    171800   337.87857     -218745.74      0             -218250.17      863.20948    
    171900   342.80804     -218749.01      0             -218246.2      -476.27245    
    172000   345.33156     -218748.81      0             -218242.31     -340.34282    
    172100   338.77617     -218741.87      0             -218244.98      159.08369    
    172200   336.00527     -218746.82      0             -218254        -1791.0549    
    172300   336.84449     -218750.09      0             -218256.04     -463.80022    
    172400   338.2839      -218749.52      0             -218253.35     -1029.3842    
    172500   342.24161     -218749.28      0             -218247.31     -265.02588    
    172600   342.0221      -218747.85      0             -218246.2      -625.02933    
    172700   343.21402     -218750.95      0             -218247.55     -1312.9471    
    172800   341.63091     -218751.64      0             -218250.56     -521.73222    
    172900   338.29747     -218750.84      0             -218254.65     -1272.9315    
    173000   339.03117     -218756.66      0             -218259.4      -808.95092    
    173100   336.61953     -218751.89      0             -218258.16      217.28571    
    173200   342.50876     -218750.71      0             -218248.34     -402.89626    
    173300   346.70821     -218753.66      0             -218245.14     -260.98417    
    173400   340.11737     -218748.03      0             -218249.18      996.02372    
    173500   334.20179     -218744.71      0             -218254.53      353.51106    
    173600   339.19288     -218753.14      0             -218255.64     -192.82019    
    173700   340.03819     -218748.53      0             -218249.8      -306.78364    
    173800   342.77273     -218746.52      0             -218243.77      678.40095    
    173900   343.07952     -218747.55      0             -218244.35      347.90242    
    174000   339.34991     -218750.37      0             -218252.64     -2044.006     
    174100   338.32496     -218751.05      0             -218254.82     -1314.6693    
    174200   337.45672     -218748.59      0             -218253.63     -178.56872    
    174300   340.19072     -218749.22      0             -218250.26     -453.45694    
    174400   339.8692      -218748.01      0             -218249.52      785.1594     
    174500   339.76168     -218748.8       0             -218250.47     -411.83405    
    174600   339.82495     -218749.05      0             -218250.62     -1286.978     
    174700   339.33716     -218749.44      0             -218251.73     -940.78654    
    174800   338.71726     -218750.36      0             -218253.56     -529.41128    
    174900   341.19484     -218753.1       0             -218252.66     -270.94467    
    175000   339.07268     -218746.4       0             -218249.07     -800.29982    
    175100   341.92739     -218745.26      0             -218243.75     -190.68208    
    175200   340.36028     -218741.27      0             -218242.06     -654.59486    
    175300   340.12073     -218751.61      0             -218252.75     -1184.2191    
    175400   337.72828     -218750.87      0             -218255.51     -668.74505    
    175500   339.10758     -218750.36      0             -218252.99     -1045.1388    
    175600   340.07672     -218745.19      0             -218246.39     -345.83582    
    175700   342.66842     -218745.72      0             -218243.12     -1419.6854    
    175800   340.10968     -218746.39      0             -218247.54     -92.227116    
    175900   339.736       -218747.73      0             -218249.43     -67.300269    
    176000   339.88153     -218749.36      0             -218250.85      711.34359    
    176100   342.29842     -218753.32      0             -218251.27      358.21997    
    176200   339.55368     -218749.93      0             -218251.9      -39.236452    
    176300   340.15268     -218751.98      0             -218253.07     -261.43764    
    176400   339.95531     -218751.96      0             -218253.34     -1657.0856    
    176500   337.11967     -218745.86      0             -218251.4      -450.12839    
    176600   340.90317     -218745.55      0             -218245.55     -766.68706    
    176700   344.26059     -218746.7       0             -218241.76      218.91019    
    176800   339.49726     -218747.31      0             -218249.36     -607.40584    
    176900   338.96293     -218752.67      0             -218255.51     -745.29784    
    177000   340.24317     -218753.99      0             -218254.95     -364.76006    
    177100   343.30326     -218753.55      0             -218250.02     -693.83718    
    177200   341.86316     -218744.49      0             -218243.07     -369.11442    
    177300   341.95098     -218744.88      0             -218243.33     -605.066      
    177400   336.21337     -218741.54      0             -218248.41      659.40794    
    177500   339.52241     -218747.26      0             -218249.27     -1322.1847    
    177600   338.4455      -218748.87      0             -218252.46      561.12205    
    177700   338.87165     -218751.71      0             -218254.69     -725.02075    
    177800   339.0138      -218750.97      0             -218253.74     -310.97781    
    177900   338.57679     -218743.62      0             -218247.02      4.2809712    
    178000   345.21118     -218748.49      0             -218242.17     -109.66384    
    178100   343.92534     -218750.35      0             -218245.91     -1452.2758    
    178200   340.77455     -218757.54      0             -218257.72     -403.385      
    178300   336.50837     -218751.02      0             -218257.46     -1307.4903    
    178400   341.99553     -218752.61      0             -218251         316.60977    
    178500   341.78407     -218747.59      0             -218246.29     -704.37461    
    178600   336.3148      -218740.06      0             -218246.78     -636.74057    
    178700   337.51556     -218748.06      0             -218253.03     -431.53954    
    178800   333.62932     -218752.21      0             -218262.87     -560.27791    
    178900   339.38318     -218756.82      0             -218259.05     -859.96522    
    179000   337.15727     -218747.27      0             -218252.75     -786.20018    
    179100   337.97286     -218744.03      0             -218248.32     -363.50578    
    179200   341.0096      -218747.83      0             -218247.66     -295.60425    
    179300   336.47888     -218744.49      0             -218250.97     -764.49384    
    179400   336.78517     -218754.34      0             -218260.37     -448.56523    
    179500   335.44826     -218751.74      0             -218259.73     -946.5276     
    179600   340.09076     -218752.17      0             -218253.35     -1349.6358    
    179700   341.15131     -218750.18      0             -218249.81     -384.09413    
    179800   338.97879     -218745.21      0             -218248.03     -878.63847    
    179900   342.41288     -218751.62      0             -218249.4      -942.77414    
    180000   338.68837     -218752.84      0             -218256.08     -1333.1025    
    180100   335.29457     -218754.97      0             -218263.19     -235.09918    
    180200   340.16717     -218757.48      0             -218258.55     -484.25198    
    180300   339.7847      -218750.31      0             -218251.94     -862.50059    
    180400   341.44825     -218750.07      0             -218249.27      277.37556    
    180500   337.83913     -218744.01      0             -218248.5       424.8411     
    180600   339.58423     -218748.67      0             -218250.6      -270.48388    
    180700   339.94172     -218752.33      0             -218253.74     -263.47485    
    180800   336.50025     -218751.43      0             -218257.88      225.91741    
    180900   338.96665     -218755.83      0             -218258.66     -843.66806    
    181000   340.94962     -218749.25      0             -218249.17     -322.54712    
    181100   339.97285     -218743.7       0             -218245.06     -1141.3932    
    181200   341.29761     -218747.96      0             -218247.38     -446.17573    
    181300   337.28201     -218748.66      0             -218253.97     -191.81436    
    181400   335.54024     -218748.46      0             -218256.32     -781.38145    
    181500   341.17514     -218753.34      0             -218252.93     -704.40882    
    181600   341.34732     -218740.77      0             -218240.11     -1575.0823    
    181700   344.98417     -218749.36      0             -218243.37     -239.2864     
    181800   336.4102      -218744.49      0             -218251.08     -730.50208    
    181900   341.36174     -218755.52      0             -218254.84     -839.56854    
    182000   341.30902     -218754.66      0             -218254.05     -129.67025    
    182100   340.37504     -218745.81      0             -218246.57      710.08107    
    182200   340.33272     -218740.03      0             -218240.86     -386.8186     
    182300   342.95299     -218747.99      0             -218244.98     -41.255944    
    182400   337.4508      -218745.3       0             -218250.36     -422.13498    
    182500   342.10354     -218752.92      0             -218251.15     -549.36106    
    182600   335.36616     -218743.09      0             -218251.2      -1848.2483    
    182700   344.05502     -218752.91      0             -218248.28     -372.078      
    182800   341.18368     -218744.59      0             -218244.17      1018.4634    
    182900   346.49316     -218750.89      0             -218242.69     -937.85007    
    183000   343.39385     -218752.88      0             -218249.22     -678.62783    
    183100   337.1617      -218750.18      0             -218255.66     -756.67764    
    183200   338.97297     -218751.51      0             -218254.34     -287.45861    
    183300   341.82098     -218750.97      0             -218249.62      220.35824    
    183400   339.15209     -218739.9       0             -218242.46     -590.75758    
    183500   345.30848     -218741.1       0             -218234.64     -431.01826    
    183600   344.91231     -218737.41      0             -218231.53     -2129.8361    
    183700   342.78043     -218745.87      0             -218243.11     -1456.1757    
    183800   341.23221     -218749.52      0             -218249.03     -32.568054    
    183900   337.09723     -218748.06      0             -218253.63     -973.00903    
    184000   336.69721     -218749.04      0             -218255.2      -877.66172    
    184100   338.86507     -218748.58      0             -218251.56     -1116.1487    
    184200   341.97117     -218745.94      0             -218244.37     -941.83618    
    184300   346.01735     -218750.45      0             -218242.94     -16.711703    
    184400   337.34233     -218746.65      0             -218251.86     -493.54738    
    184500   335.63081     -218749.9       0             -218257.63     -780.98117    
    184600   338.46854     -218750.73      0             -218254.3      -267.59967    
    184700   337.69119     -218744.53      0             -218249.23     -1311.3541    
    184800   340.47787     -218745.23      0             -218245.85     -843.6004     
    184900   343.97318     -218749.09      0             -218244.58     -374.6335     
    185000   344.24551     -218754.38      0             -218249.47     -18.861002    
    185100   337.73186     -218750.94      0             -218255.58     -364.56261    
    185200   337.41031     -218752.11      0             -218257.23      292.37907    
    185300   336.60166     -218745.47      0             -218251.77     -178.02663    
    185400   341.25034     -218744.58      0             -218244.06     -938.59673    
    185500   338.74124     -218741.71      0             -218244.87     -264.76613    
    185600   338.72385     -218746.8       0             -218249.98     -482.58886    
    185700   339.74356     -218751.92      0             -218253.61     -258.29288    
    185800   336.97049     -218747.94      0             -218253.71      33.727418    
    185900   336.77992     -218745.1       0             -218251.14     -187.62519    
    186000   339.13764     -218745.8       0             -218248.39      87.544848    
    186100   340.96075     -218745.77      0             -218245.68     -133.44917    
    186200   346.57101     -218750.24      0             -218241.92     -589.39013    
    186300   341.94479     -218749.21      0             -218247.67     -342.8112     
    186400   342.56262     -218755.95      0             -218253.51      530.21262    
    186500   338.23386     -218752.28      0             -218256.19     -363.65888    
    186600   339.01753     -218749.43      0             -218252.19     -18.431099    
    186700   342.58832     -218744.26      0             -218241.79     -64.185998    
    186800   342.76018     -218745.94      0             -218243.21     -463.10542    
    186900   338.10404     -218746.07      0             -218250.17     -870.22891    
    187000   340.12145     -218752.37      0             -218253.51     -834.39181    
    187100   341.64493     -218754.29      0             -218253.19     -135.18254    
    187200   340.3093      -218748.73      0             -218249.6       59.640535    
    187300   344.76555     -218743.77      0             -218238.09     -598.67077    
    187400   340.3527      -218739.03      0             -218239.83     -890.04501    
    187500   341.19292     -218747.86      0             -218247.43      284.23398    
    187600   338.30047     -218747.9       0             -218251.71     -420.53491    
    187700   337.37915     -218748.58      0             -218253.74     -64.532667    
    187800   341.0469      -218753.2       0             -218252.98     -93.636811    
    187900   338.82024     -218740.79      0             -218243.83     -866.06155    
    188000   342.44169     -218742.45      0             -218240.19     -189.08436    
    188100   340.51989     -218744.84      0             -218245.4      -808.67228    
    188200   339.21492     -218748.03      0             -218250.5      -9.2282393    
    188300   337.87301     -218746.33      0             -218250.77     -597.28172    
    188400   337.48624     -218745.31      0             -218250.31     -926.79976    
    188500   339.71449     -218748.16      0             -218249.89     -1516.3153    
    188600   336.94965     -218742.35      0             -218248.14     -288.41455    
    188700   340.6059      -218745.77      0             -218246.2      -1662.8599    
    188800   337.52403     -218744.66      0             -218249.61     -191.33452    
    188900   336.47151     -218749.82      0             -218256.32     -502.78639    
    189000   336.10438     -218751.6       0             -218258.63     -313.99716    
    189100   336.54731     -218747.44      0             -218253.82     -759.95447    
    189200   340.90957     -218744.08      0             -218244.06     -1067.5833    
    189300   341.70399     -218745.52      0             -218244.34     -575.85733    
    189400   339.97374     -218749.76      0             -218251.11     -963.22229    
    189500   338.08825     -218750.71      0             -218254.83     -543.29555    
    189600   337.25405     -218748.77      0             -218254.12     -6.121578     
    189700   336.98443     -218745.58      0             -218251.32     -739.32151    
    189800   338.24951     -218746.14      0             -218250.02     -636.76888    
    189900   337.13049     -218743.16      0             -218248.69     -806.89421    
    190000   337.02151     -218743.78      0             -218249.47     -374.16541    
    190100   340.11725     -218750.92      0             -218252.07     -351.33447    
    190200   338.25354     -218754.15      0             -218258.03      522.61704    
    190300   334.07255     -218748.59      0             -218258.6      -138.87552    
    190400   340.70303     -218749.44      0             -218249.73     -654.12007    
    190500   341.13294     -218746.59      0             -218246.25     -1283.2629    
    190600   340.0681      -218747.64      0             -218248.86      1174.2014    
    190700   341.07388     -218752.11      0             -218251.85     -39.535199    
    190800   338.93032     -218755.61      0             -218258.49     -86.320206    
    190900   335.03206     -218757.59      0             -218266.19      179.51702    
    191000   340.07049     -218759.15      0             -218260.36     -475.67833    
    191100   340.51702     -218753.58      0             -218254.14     -809.35051    
    191200   341.32176     -218751.11      0             -218250.49     -705.28667    
    191300   343.28283     -218749.51      0             -218246.01      368.36396    
    191400   341.84058     -218745.22      0             -218243.84      71.644485    
    191500   339.72436     -218748.44      0             -218250.16     -1198.7896    
    191600   337.88456     -218753.41      0             -218257.83     -167.25042    
    191700   339.80526     -218754.68      0             -218256.28      613.02461    
    191800   339.88219     -218747.72      0             -218249.21      193.90544    
    191900   336.92947     -218740.76      0             -218246.58     -105.35616    
    192000   342.76224     -218750.02      0             -218247.29     -376.96047    
    192100   341.11882     -218750.28      0             -218249.96     -1246.589     
    192200   337.59346     -218747.89      0             -218252.73     -436.18297    
    192300   335.4173      -218749.88      0             -218257.92     -529.47657    
    192400   331.90062     -218751.98      0             -218265.18     -594.45738    
    192500   340.45398     -218758.29      0             -218258.94     -1734.7035    
    192600   338.7987      -218748.76      0             -218251.84     -1159.3965    
    192700   337.02247     -218743.92      0             -218249.6      -266.02323    
    192800   339.01681     -218745.86      0             -218248.62     -133.59863    
    192900   340.50558     -218747.04      0             -218247.61     -589.8647     
    193000   342.11042     -218750.1       0             -218248.32     -344.30146    
    193100   342.71313     -218755.5       0             -218252.84     -84.98278     
    193200   339.24758     -218754.88      0             -218257.3      -1143.5832    
    193300   339.12753     -218750.43      0             -218253.03      439.12191    
    193400   339.66189     -218742.64      0             -218244.45      45.810314    
    193500   340.28062     -218744.42      0             -218245.32     -558.66994    
    193600   341.70919     -218751.14      0             -218249.95     -661.70836    
    193700   337.6602      -218749.03      0             -218253.78      114.98745    
    193800   338.35563     -218750.33      0             -218254.06     -47.678238    
    193900   339.65335     -218744         0             -218245.83     -1285.9711    
    194000   346.8092      -218748.76      0             -218240.09     -478.96724    
    194100   339.64789     -218744.41      0             -218246.24     -1288.6269    
    194200   336.37922     -218745.67      0             -218252.3      -1966.7292    
    194300   338.08225     -218749.09      0             -218253.22     -1866.9878    
    194400   339.65615     -218748.61      0             -218250.43     -662.42805    
    194500   342.73383     -218743.05      0             -218240.36     -839.22866    
    194600   345.60912     -218745.61      0             -218238.7       34.182931    
    194700   344.68778     -218750.73      0             -218245.17      551.1449     
    194800   337.22999     -218744.37      0             -218249.75      948.90345    
    194900   339.6998      -218750.46      0             -218252.21     -584.76055    
    195000   339.50352     -218753.05      0             -218255.09     -38.670561    
    195100   337.56915     -218753.86      0             -218258.74     -536.40105    
    195200   342.80017     -218760.7       0             -218257.91     -1348.3539    
    195300   339.02188     -218746.62      0             -218249.37     -258.89391    
    195400   343.37926     -218748.61      0             -218244.97     -788.12036    
    195500   337.83116     -218743.75      0             -218248.25     -780.61255    
    195600   336.98025     -218747.76      0             -218253.5      -488.65437    
    195700   332.99218     -218747.92      0             -218259.51     -1004.6871    
    195800   334.87928     -218758.84      0             -218267.67     -157.42673    
    195900   337.8771      -218755.94      0             -218260.37     -1422.3495    
    196000   338.84651     -218750.22      0             -218253.23     -865.13176    
    196100   340.51003     -218749.49      0             -218250.06     -1288.9738    
    196200   342.22562     -218748.25      0             -218246.31     -1609.6793    
    196300   339.1044      -218743.54      0             -218246.17     -321.90586    
    196400   340.32586     -218750.42      0             -218251.26     -901.03046    
    196500   338.29518     -218754.76      0             -218258.58     -415.4212     
    196600   339.87806     -218757.67      0             -218259.17      247.71721    
    196700   340.9797      -218749.1       0             -218248.98      995.7032     
    196800   341.21528     -218744.71      0             -218244.25     -440.35255    
    196900   341.58155     -218749.66      0             -218248.66     -818.98783    
    197000   340.05607     -218752.96      0             -218254.2      -729.80383    
    197100   338.6564      -218753.12      0             -218256.41     -386.76504    
    197200   343.31797     -218754.04      0             -218250.49      31.293392    
    197300   341.00251     -218741.98      0             -218241.82      242.99276    
    197400   341.10781     -218743.71      0             -218243.4      -1413.0981    
    197500   344.5894      -218754.16      0             -218248.75     -248.26397    
    197600   337.45589     -218748.39      0             -218253.44     -1289.9162    
    197700   342.64031     -218755.44      0             -218252.89     -1566.1898    
    197800   340.85277     -218751.63      0             -218251.7      -438.34245    
    197900   339.48737     -218747.92      0             -218249.99     -249.85969    
    198000   338.35153     -218745.72      0             -218249.46     -129.7072     
    198100   337.57103     -218742.2       0             -218247.08      636.94171    
    198200   343.79934     -218750.27      0             -218246.01      80.649544    
    198300   339.35717     -218748.63      0             -218250.89     -590.617      
    198400   338.76475     -218752.99      0             -218256.12     -1171.4672    
    198500   337.77236     -218752.28      0             -218256.86     -1230.5244    
    198600   341.70789     -218748.53      0             -218247.35     -1125.4131    
    198700   344.15236     -218747.93      0             -218243.15     -439.07997    
    198800   344.90397     -218752.01      0             -218246.13     -757.65339    
    198900   338.32581     -218747.66      0             -218251.44     -1233.762     
    199000   335.7771      -218747.65      0             -218255.16     -1733.0384    
    199100   338.94927     -218750.55      0             -218253.41     -714.95986    
    199200   336.33442     -218745.49      0             -218252.19     -773.07619    
    199300   338.13816     -218746.64      0             -218250.69      220.9757     
    199400   340.62447     -218748.02      0             -218248.42     -694.18535    
    199500   340.75751     -218745.47      0             -218245.68     -730.23614    
    199600   342.24814     -218746.84      0             -218244.86     -986.21209    
    199700   339.91401     -218749.4       0             -218250.84     -878.8612     
    199800   336.32939     -218750.31      0             -218257.01     -324.62596    
    199900   337.44424     -218751.84      0             -218256.91     -593.1543     
    200000   338.69283     -218745.51      0             -218248.74      335.15941    
    200100   342.4952      -218747.98      0             -218245.64     -794.3093     
    200200   338.96879     -218744.6       0             -218247.43     -1183.9563    
    200300   340.67336     -218752.17      0             -218252.5      -948.91546    
    200400   334.80225     -218746.93      0             -218255.87     -458.85345    
    200500   343.8846      -218757.05      0             -218252.67      171.36512    
    200600   346.14239     -218749.64      0             -218241.95     -498.29919    
    200700   342.71807     -218745.35      0             -218242.68      346.32484    
    200800   340.31086     -218748.6       0             -218249.46      46.126123    
    200900   342.31376     -218755.64      0             -218253.56      241.01975    
    201000   339.01842     -218750.98      0             -218253.74     -468.50361    
    201100   339.92884     -218750.26      0             -218251.68     -1103.2766    
    201200   341.9158      -218751.89      0             -218250.39     -356.78183    
    201300   341.21537     -218744.12      0             -218243.65      239.27972    
    201400   345.59966     -218742.81      0             -218235.92     -173.42804    
    201500   342.02824     -218744.72      0             -218243.06      510.02203    
    201600   338.60556     -218746.82      0             -218250.18     -156.40689    
    201700   339.30769     -218751.06      0             -218253.39     -272.98047    
    201800   336.65767     -218747.66      0             -218253.88      452.06622    
    201900   341.07519     -218747.94      0             -218247.68      546.17236    
    202000   338.17582     -218737.32      0             -218241.31     -1145.8035    
    202100   343.62359     -218745.86      0             -218241.87     -824.10072    
    202200   338.03005     -218749.83      0             -218254.03     -1204.6595    
    202300   337.94139     -218750.52      0             -218254.86      323.4304     
    202400   340.46784     -218750.55      0             -218251.18     -620.97429    
    202500   339.36304     -218743.53      0             -218245.78     -1031.0471    
    202600   339.48421     -218742.87      0             -218244.94     -676.17656    
    202700   339.98037     -218752.12      0             -218253.47     -309.83904    
    202800   336.03034     -218751.45      0             -218258.59     -868.4454     
    202900   336.95596     -218749.22      0             -218255         53.628192    
    203000   337.40955     -218744.56      0             -218249.68     -594.2164     
    203100   343.24402     -218749.78      0             -218246.34      239.83992    
    203200   342.34319     -218749.4       0             -218247.28     -864.4371     
    203300   340.75104     -218748.5       0             -218248.71      117.93517    
    203400   337.21372     -218746.31      0             -218251.71     -125.02702    
    203500   335.76916     -218746.52      0             -218254.04     -1283.8917    
    203600   342.52561     -218756.89      0             -218254.5       302.95492    
    203700   339.54993     -218749.34      0             -218251.32      330.01281    
    203800   344.28673     -218749.55      0             -218244.58     -219.07707    
    203900   342.15256     -218744.73      0             -218242.89     -860.29342    
    204000   340.40665     -218749.3       0             -218250.02     -1123.9277    
    204100   339.77109     -218754.91      0             -218256.56     -54.071425    
    204200   339.41224     -218751.95      0             -218254.13     -415.70909    
    204300   341.01197     -218748.79      0             -218248.62     -692.67624    
    204400   336.49404     -218737.9       0             -218244.35     -674.79806    
    204500   340.34922     -218745.64      0             -218246.44     -843.4188     
    204600   338.67811     -218755.62      0             -218258.88     -235.41728    
    204700   337.28112     -218752.53      0             -218257.83     -917.75641    
    204800   339.92613     -218750.37      0             -218251.8      -316.06329    
    204900   340.85787     -218746.87      0             -218246.92      261.7536     
    205000   342.27566     -218747.2       0             -218245.18      238.68949    
    205100   340.39913     -218750.66      0             -218251.39     -1112.8389    
    205200   334.9243      -218751.85      0             -218260.61     -1143.9657    
    205300   339.12085     -218753.66      0             -218256.27     -740.89752    
    205400   339.28121     -218747         0             -218249.37     -857.67732    
    205500   340.60116     -218745.95      0             -218246.38     -67.940139    
    205600   340.47736     -218747.53      0             -218248.15     -411.45253    
    205700   337.48548     -218750.57      0             -218255.57     -502.31471    
    205800   336.62246     -218756.78      0             -218263.05     -581.55536    
    205900   339.96697     -218756.92      0             -218258.28      733.55626    
    206000   341.75036     -218754.27      0             -218253.02     -239.3816     
    206100   340.79087     -218748.64      0             -218248.8      -644.05269    
    206200   340.67024     -218747.57      0             -218247.9      -17.69709     
    206300   338.6434      -218745.39      0             -218248.7      -668.90459    
    206400   340.76512     -218754.29      0             -218254.48     -734.66096    
    206500   337.33277     -218752.35      0             -218257.58     -1748.8545    
    206600   339.38292     -218752.65      0             -218254.87     -130.80069    
    206700   339.06985     -218743.2       0             -218245.88      330.49719    
    206800   343.0647      -218747.54      0             -218244.36     -652.18928    
    206900   337.5277      -218744.01      0             -218248.96     -500.70824    
    207000   337.02821     -218746.29      0             -218251.96     -746.43274    
    207100   340.62672     -218751.06      0             -218251.46      362.01167    
    207200   340.23917     -218750.01      0             -218250.98     -323.76472    
    207300   337.76836     -218746.68      0             -218251.27      86.426956    
    207400   340.78645     -218750.64      0             -218250.81      98.473093    
    207500   338.60962     -218746.44      0             -218249.8      -1037.1362    
    207600   340.07932     -218748.79      0             -218249.99     -89.269846    
    207700   339.92985     -218750.77      0             -218252.19     -1266.2325    
    207800   337.11483     -218753.22      0             -218258.77     -726.92053    
    207900   336.42916     -218755.27      0             -218261.82     -77.078388    
    208000   338.83926     -218751.02      0             -218254.04      417.83951    
    208100   339.89233     -218746.89      0             -218248.37      862.13126    
    208200   338.68189     -218745.81      0             -218249.06     -183.36222    
    208300   335.57728     -218743.17      0             -218250.98     -633.05206    
    208400   341.60243     -218752.22      0             -218251.19     -579.23742    
    208500   339.37529     -218752.14      0             -218254.37     -1547.7809    
    208600   336.70067     -218750.35      0             -218256.5      -791.1113     
    208700   339.81208     -218748.86      0             -218250.45     -1594.6737    
    208800   341.05947     -218745.6       0             -218245.36     -551.85254    
    208900   341.35774     -218745.56      0             -218244.88     -929.96991    
    209000   339.7836      -218750.55      0             -218252.18     -1867.6726    
    209100   336.14183     -218753.44      0             -218260.42     -1245.753     
    209200   337.6735      -218751.81      0             -218256.53     -429.10781    
    209300   341.5443      -218750.73      0             -218249.78      210.52208    
    209400   341.21823     -218747.39      0             -218246.92     -505.34612    
    209500   339.95613     -218746.85      0             -218248.23     -1203.6945    
    209600   336.39081     -218750.37      0             -218256.98     -600.89538    
    209700   336.15203     -218755.4       0             -218262.36     -803.56965    
    209800   338.52997     -218753.21      0             -218256.69     -858.09915    
    209900   341.54374     -218751.82      0             -218250.87     -868.12556    
    210000   337.65311     -218743.29      0             -218248.05      322.34657    
    210100   341.35654     -218749.12      0             -218248.45     -735.45848    
    210200   337.19367     -218751.42      0             -218256.85     -1805.1525    
    210300   339.87025     -218758.53      0             -218260.04      883.15813    
    210400   340.48954     -218752.39      0             -218252.99      313.2044     
    210500   344.39491     -218749.31      0             -218244.18      769.3711     
    210600   340.91366     -218745.99      0             -218245.96     -1300.7875    
    210700   336.49198     -218745.93      0             -218252.39     -1514.4916    
    210800   338.86112     -218753.21      0             -218256.2      -151.17504    
    210900   339.38184     -218751.26      0             -218253.48     -78.957104    
    211000   339.22721     -218740.55      0             -218243         710.24441    
    211100   341.94027     -218741.72      0             -218240.2      -1795.5696    
    211200   344.07948     -218749.12      0             -218244.45     -218.02206    
    211300   340.61936     -218750.16      0             -218250.57     -2214.3212    
    211400   338.88692     -218750.24      0             -218253.19      106.87407    
    211500   338.17558     -218747.92      0             -218251.91     -106.77004    
    211600   338.21077     -218743.62      0             -218247.56     -511.39193    
    211700   344.09438     -218742.69      0             -218238        -475.82968    
    211800   342.50145     -218742.48      0             -218240.13     -324.41098    
    211900   339.54641     -218746.24      0             -218248.23     -851.2899     
    212000   342.14977     -218753.67      0             -218251.83     -887.91141    
    212100   340.38109     -218751.93      0             -218252.68      694.81159    
    212200   340.13786     -218749.65      0             -218250.76     -1059.5379    
    212300   343.68596     -218748.49      0             -218244.4      -704.68572    
    212400   345.30456     -218745.71      0             -218239.25     -749.46864    
    212500   341.56318     -218747.24      0             -218246.26      95.670398    
    212600   339.0076      -218750.31      0             -218253.09      209.74455    
    212700   340.15061     -218752.39      0             -218253.49     -112.15887    
    212800   338.93942     -218748.22      0             -218251.09     -476.38662    
    212900   341.32677     -218744.65      0             -218244.02     -1371.5724    
    213000   340.34168     -218739.72      0             -218240.54     -116.71112    
    213100   338.96042     -218747.12      0             -218249.96     -328.32491    
    213200   338.13323     -218751.32      0             -218255.38     -359.8901     
    213300   338.57164     -218749.98      0             -218253.39     -756.01888    
    213400   340.94652     -218747.96      0             -218247.89     -1275.1685    
    213500   341.06933     -218743.92      0             -218243.67     -287.47898    
    213600   341.9459      -218746.31      0             -218244.77     -475.80895    
    213700   336.9917      -218750.69      0             -218256.42     -33.985852    
    213800   335.65065     -218751.23      0             -218258.93     -505.79682    
    213900   337.85733     -218747.71      0             -218252.17     -994.35116    
    214000   342.34486     -218749.32      0             -218247.2       338.52595    
    214100   339.78304     -218745.55      0             -218247.18      1017.3823    
    214200   338.66782     -218748.27      0             -218251.54      665.93201    
    214300   340.04954     -218759.99      0             -218261.23     -2.691035     
    214400   334.52805     -218751.03      0             -218260.37      378.7897     
    214500   337.4423      -218747.77      0             -218252.84     -535.0181     
    214600   343.30848     -218752.67      0             -218249.14     -1129.7171    
    214700   340.41477     -218747.76      0             -218248.47     -670.91512    
    214800   342.50907     -218749.93      0             -218247.57     -861.92135    
    214900   340.40963     -218750.54      0             -218251.26     -618.29537    
    215000   337.13357     -218752.73      0             -218258.25     -1495.367     
    215100   338.54735     -218753.19      0             -218256.64     -756.08778    
    215200   339.35462     -218746.14      0             -218248.41      618.94743    
    215300   344.47346     -218749.39      0             -218244.15      421.26322    
    215400   342.55665     -218748.62      0             -218246.19      26.959037    
    215500   341.80483     -218750.89      0             -218249.56      1554.8391    
    215600   340.10118     -218753.91      0             -218255.08     -1039.6961    
    215700   339.34621     -218753.93      0             -218256.21     -96.870663    
    215800   338.66515     -218749.65      0             -218252.92     -739.77959    
    215900   338.15076     -218747.78      0             -218251.81     -975.38687    
    216000   338.43491     -218747.01      0             -218250.62     -1061.243     
    216100   338.71232     -218743.77      0             -218246.98     -1213.1558    
    216200   343.21189     -218747.28      0             -218243.89     -1024.8103    
    216300   341.78038     -218746.35      0             -218245.06      75.061184    
    216400   340.23912     -218752.61      0             -218253.57     -426.39792    
    216500   337.04757     -218751.26      0             -218256.91     -461.25563    
    216600   338.78579     -218750.79      0             -218253.89     -1108.4284    
    216700   342.36976     -218746.4       0             -218244.24     -429.25276    
    216800   341.09448     -218743.67      0             -218243.38     -1117.8635    
    216900   342.05887     -218748.75      0             -218247.05     -665.28463    
    217000   336.32623     -218745.34      0             -218252.05     -1495.6114    
    217100   338.85843     -218750.12      0             -218253.12      415.29219    
    217200   343.02577     -218754.81      0             -218251.69     -1318.5737    
    217300   342.89074     -218745.85      0             -218242.93     -1298.9475    
    217400   340.05752     -218737.04      0             -218238.27     -1352.674     
    217500   343.10876     -218748.08      0             -218244.84     -970.18538    
    217600   336.47997     -218744.77      0             -218251.25      244.67178    
    217700   337.91514     -218749.21      0             -218253.58     -872.1856     
    217800   340.97391     -218751.31      0             -218251.19     -217.82497    
    217900   343.20191     -218748.02      0             -218244.64     -72.001412    
    218000   343.81688     -218741.08      0             -218236.8      -751.08055    
    218100   345.2367      -218747.51      0             -218241.15     -1129.7078    
    218200   340.30948     -218748.99      0             -218249.85     -1124.1426    
    218300   342.00316     -218753.01      0             -218251.38     -889.61953    
    218400   338.81412     -218748.89      0             -218251.95     -1153.4574    
    218500   340.97345     -218750.63      0             -218250.52     -1862.6955    
    218600   341.61401     -218747.7       0             -218246.65      14.690933    
    218700   342.65101     -218745.31      0             -218242.74      166.23267    
    218800   340.37579     -218745.29      0             -218246.06     -552.78881    
    218900   340.89985     -218755.11      0             -218255.11     -1374.9054    
    219000   337.36798     -218751.28      0             -218256.46     -135.7833     
    219100   339.1163      -218749.84      0             -218252.45     -529.95417    
    219200   340.20567     -218745.64      0             -218246.66     -42.17695     
    219300   343.31093     -218745.59      0             -218242.05     -269.81367    
    219400   339.96705     -218747.75      0             -218249.11     -826.64798    
    219500   337.7336      -218753.67      0             -218258.31     -219.24043    
    219600   338.4529      -218753.84      0             -218257.42      916.51809    
    219700   340.95323     -218749.73      0             -218249.65     -330.70506    
    219800   341.5811      -218747.3       0             -218246.29     -634.04084    
    219900   342.26103     -218749.31      0             -218247.32     -1680.9968    
    220000   338.41943     -218751.92      0             -218255.55     -832.11537    
    220100   339.85919     -218759.46      0             -218260.98      12.308715    
    220200   335.47465     -218748.91      0             -218256.86      628.61639    
    220300   338.57395     -218748.05      0             -218251.46     -217.43324    
    220400   338.66928     -218747.08      0             -218250.35      296.03502    
    220500   341.52177     -218750.81      0             -218249.9      -530.8989     
    220600   340.37715     -218747.41      0             -218248.17     -455.38428    
    220700   344.26408     -218747.5       0             -218242.57     -1345.1936    
    220800   341.28894     -218741.31      0             -218240.74     -541.96149    
    220900   339.3635      -218747.83      0             -218250.09     -336.13384    
    221000   337.92711     -218750.07      0             -218254.43     -1268.8535    
    221100   335.25562     -218744.44      0             -218252.72     -987.9315     
    221200   343.01784     -218750.91      0             -218247.81     -1558.977     
    221300   345.99421     -218748.51      0             -218241.03      401.59274    
    221400   348.09671     -218747.13      0             -218236.57     -11.565736    
    221500   340.78883     -218741.88      0             -218242.04     -1825.2242    
    221600   341.37068     -218751.67      0             -218250.97      70.883953    
    221700   337.2804      -218749.86      0             -218255.17     -1048.6033    
    221800   337.06407     -218748.58      0             -218254.21     -598.36279    
    221900   340.13906     -218747.03      0             -218248.15     -317.79547    
    222000   342.44077     -218743.86      0             -218241.59     -433.63898    
    222100   344.80762     -218749.02      0             -218243.28      730.37789    
    222200   338.63981     -218744.67      0             -218247.98     -1139.4309    
    222300   338.55425     -218746.62      0             -218250.06      190.03617    
    222400   340.10716     -218749.83      0             -218250.99      860.6581     
    222500   340.22254     -218749.76      0             -218250.75      364.96338    
    222600   339.1151      -218749.71      0             -218252.32     -39.453725    
    222700   337.88295     -218751.84      0             -218256.26     -62.240187    
    222800   341.53399     -218755.28      0             -218254.35     -910.23293    
    222900   341.20751     -218747.11      0             -218246.66     -928.74573    
    223000   341.09256     -218742.73      0             -218242.44     -1223.6655    
    223100   342.45607     -218748.28      0             -218245.99     -349.20672    
    223200   341.47514     -218751.25      0             -218250.4       74.973751    
    223300   338.3525      -218747.53      0             -218251.27     -147.9108     
    223400   341.38315     -218751.04      0             -218250.32      108.79333    
    223500   342.19902     -218752.67      0             -218250.76      598.42279    
    223600   339.15171     -218751.69      0             -218254.25     -131.55671    
    223700   339.07664     -218754.73      0             -218257.4       103.54886    
    223800   339.88866     -218753.31      0             -218254.79      730.17647    
    223900   344.86916     -218751.52      0             -218245.7       879.01391    
    224000   345.18836     -218750.99      0             -218244.7      -466.43682    
    224100   341.83108     -218750.25      0             -218248.88     -1046.3528    
    224200   338.51734     -218749.84      0             -218253.33     -1470.0038    
    224300   337.72172     -218750         0             -218254.66     -569.68216    
    224400   340.8557      -218753.28      0             -218253.35     -560.82587    
    224500   341.70476     -218753         0             -218251.82     -1123.9787    
    224600   343.48191     -218752.38      0             -218248.59     -128.14025    
    224700   338.20907     -218740.51      0             -218244.46     -1261.4772    
    224800   341.845       -218744.02      0             -218242.63     -75.33216     
    224900   339.76265     -218748.46      0             -218250.13     -267.64432    
    225000   337.1249      -218750.8       0             -218256.33     -434.31364    
    225100   340.79383     -218754.25      0             -218254.41     -520.13564    
    225200   338.68244     -218745.06      0             -218248.31      683.11776    
    225300   341.26237     -218744.05      0             -218243.51     -239.37842    
    225400   341.93337     -218749.32      0             -218247.8      -1404.8658    
    225500   337.81795     -218752.92      0             -218257.44     -1797.135     
    225600   336.58214     -218750.75      0             -218257.08     -282.61974    
    225700   337.67198     -218745.82      0             -218250.55     -263.04803    
    225800   342.59717     -218748.04      0             -218245.55     -119.79976    
    225900   342.65426     -218746.96      0             -218244.39     -191.78107    
    226000   339.77634     -218749.56      0             -218251.2       808.16103    
    226100   335.38772     -218751.14      0             -218259.22     -12.048217    
    226200   342.33958     -218757.38      0             -218255.26      86.340802    
    226300   338.83481     -218746.62      0             -218249.64     -557.99783    
    226400   340.28069     -218745.52      0             -218246.43      596.97527    
    226500   340.15039     -218745.42      0             -218246.51     -703.22996    
    226600   334.30085     -218740.45      0             -218250.12     -1169.7616    
    226700   340.10106     -218751.44      0             -218252.61     -100.79666    
    226800   338.64731     -218748.65      0             -218251.95      112.86863    
    226900   339.87704     -218748.15      0             -218249.65     -377.66649    
    227000   339.57961     -218744.64      0             -218246.57     -179.92419    
    227100   341.15733     -218744.37      0             -218243.99     -434.27963    
    227200   341.20911     -218747.74      0             -218247.29     -17.438312    
    227300   335.2314      -218747.98      0             -218256.29     -1092.0918    
    227400   340.55551     -218755.35      0             -218255.85     -436.82521    
    227500   339.30871     -218748.35      0             -218250.68      148.52078    
    227600   340.1001      -218746.87      0             -218248.04      760.42426    
    227700   339.83995     -218746.21      0             -218247.76      377.14927    
    227800   344.17307     -218754.29      0             -218249.49     -2.0960462    
    227900   337.90785     -218747.63      0             -218252.01      238.78135    
    228000   344.24703     -218758.62      0             -218253.71     -756.69657    
    228100   340.60393     -218755.74      0             -218256.17     -115.17228    
    228200   339.21746     -218753.34      0             -218255.81     -860.40327    
    228300   337.97006     -218743.63      0             -218247.92     -360.89738    
    228400   340.01696     -218742.71      0             -218244        -279.53658    
    228500   345.49795     -218753.45      0             -218246.7      -365.24591    
    228600   338.85139     -218750.65      0             -218253.65     -1201.8452    
    228700   341.92253     -218758.29      0             -218256.79     -208.15321    
    228800   339.39227     -218747.64      0             -218249.84      648.30586    
    228900   343.60839     -218744.58      0             -218240.6      -740.19043    
    229000   341.80706     -218745.72      0             -218244.38      429.11965    
    229100   339.52661     -218749.7       0             -218251.71      201.99644    
    229200   339.23252     -218752.49      0             -218254.93      701.48419    
    229300   338.80808     -218752.21      0             -218255.27     -555.27882    
    229400   340.55447     -218747.29      0             -218247.8      -290.8369     
    229500   340.86376     -218740.61      0             -218240.66     -164.95199    
    229600   340.66099     -218743.37      0             -218243.71      225.41321    
    229700   338.6348      -218746.76      0             -218250.08     -941.56541    
    229800   337.1431      -218747.16      0             -218252.67     -244.64981    
    229900   339.89079     -218750.54      0             -218252.02     -1101.884     
    230000   342.37687     -218751.01      0             -218248.85     -411.48488    
    230100   340.92604     -218744.44      0             -218244.4      -521.47589    
    230200   343.02452     -218738.54      0             -218235.43      407.94748    
    230300   346.19864     -218742.01      0             -218234.24      563.38923    
    230400   340.67045     -218743.81      0             -218244.14      726.13078    
    230500   338.24195     -218745.22      0             -218249.11     -213.52669    
    230600   339.99196     -218752.65      0             -218253.98      251.14592    
    230700   334.97669     -218747.33      0             -218256.01      961.09561    
    230800   346.29592     -218756.45      0             -218248.53     -52.074798    
    230900   341.35155     -218744.32      0             -218243.65     -1003.3408    
    231000   342.57741     -218747.19      0             -218244.73      747.16627    
    231100   341.87121     -218749.53      0             -218248.1      -158.44204    
    231200   338.84663     -218746.88      0             -218249.89     -1562.0938    
    231300   338.3456      -218748.47      0             -218252.21     -182.77703    
    231400   339.00069     -218751.89      0             -218254.67     -1213.4702    
    231500   338.46343     -218748.56      0             -218252.13      0.74024739   
    231600   340.54665     -218743.41      0             -218243.93     -670.44187    
    231700   341.47743     -218743.75      0             -218242.9      -377.23879    
    231800   340.58099     -218749.56      0             -218250.03      404.60329    
    231900   335.7411      -218747         0             -218254.57     -1292.906     
    232000   340.41847     -218752.52      0             -218253.23     -1343.7129    
    232100   338.91285     -218748.29      0             -218251.21      429.71429    
    232200   338.11945     -218743.52      0             -218247.6      -272.0431     
    232300   345.84937     -218748.49      0             -218241.23      472.61264    
    232400   342.93892     -218740.11      0             -218237.12      210.89866    
    232500   339.2605      -218741.56      0             -218243.96     -615.9585     
    232600   341.78905     -218753.38      0             -218252.07     -832.13891    
    232700   338.30482     -218750.77      0             -218254.57     -1071.9928    
    232800   342.90915     -218755.16      0             -218252.21     -968.72952    
    232900   341.33304     -218745.17      0             -218244.53     -263.29752    
    233000   343.90527     -218743.96      0             -218239.55     -250.40974    
    233100   344.34086     -218749.33      0             -218244.28     -111.05172    
    233200   341.64872     -218748.94      0             -218247.84     -746.52512    
    233300   338.76283     -218747.67      0             -218250.8      -218.81713    
    233400   336.63194     -218746.43      0             -218252.69     -1521.8834    
    233500   340.19974     -218752.03      0             -218253.05     -624.60929    
    233600   340.44167     -218747.72      0             -218248.39     -880.79718    
    233700   345.02655     -218748.91      0             -218242.85     -703.52934    
    233800   344.652       -218749.67      0             -218244.16     -394.0795     
    233900   341.81476     -218754.8       0             -218253.46      821.49671    
    234000   337.31943     -218750.56      0             -218255.81      383.34242    
    234100   338.28635     -218749.29      0             -218253.12     -162.87308    
    234200   342.31676     -218750.05      0             -218247.97     -1459.7918    
    234300   340.50936     -218744.11      0             -218244.68      166.3996     
    234400   339.93448     -218745.88      0             -218247.29     -324.50635    
    234500   337.15959     -218752.86      0             -218258.34     -1224.5602    
    234600   339.32681     -218755.31      0             -218257.62     -1534.3955    
    234700   343.83556     -218754.41      0             -218250.1      -1002.2869    
    234800   340.87872     -218746.33      0             -218246.36     -1128.0832    
    234900   341.53907     -218747.48      0             -218246.54     -735.83605    
    235000   339.44068     -218752.66      0             -218254.79     -243.01345    
    235100   339.42165     -218758.85      0             -218261.02      191.24482    
    235200   338.23171     -218752.98      0             -218256.89     -211.25054    
    235300   337.07571     -218744.91      0             -218250.52     -52.038179    
    235400   344.69237     -218753.26      0             -218247.7       195.84296    
    235500   343.32045     -218751.94      0             -218248.38     -1166.6837    
    235600   337.33319     -218746.48      0             -218251.71     -1156.3281    
    235700   334.44526     -218751.39      0             -218260.86     -918.30793    
    235800   334.91446     -218753.65      0             -218262.43     -414.70592    
    235900   338.19914     -218750.07      0             -218254.02     -425.67209    
    236000   338.18429     -218747.23      0             -218251.21     -818.84361    
    236100   341.53751     -218750.42      0             -218249.49     -118.38582    
    236200   343.58467     -218751.71      0             -218247.77     -1228.1548    
    236300   343.39586     -218749.71      0             -218246.05     -1122.5188    
    236400   341.38367     -218746.16      0             -218245.45     -384.07814    
    236500   341.25418     -218751.31      0             -218250.79     -500.09048    
    236600   335.52735     -218748.43      0             -218256.3       256.08966    
    236700   338.23715     -218752.85      0             -218256.75      101.06233    
    236800   343.17083     -218751.58      0             -218248.24      152.54709    
    236900   344.71275     -218748.91      0             -218243.31     -433.88098    
    237000   342.57805     -218749.57      0             -218247.11     -14.496491    
    237100   336.28031     -218745.53      0             -218252.3      -2153.3014    
    237200   341.60466     -218754.59      0             -218253.55     -745.68221    
    237300   340.5173      -218751.12      0             -218251.67     -566.47465    
    237400   341.12063     -218750.5       0             -218250.18     -1614.114     
    237500   342.3773      -218751.43      0             -218249.26     -977.89915    
    237600   341.32684     -218750.82      0             -218250.19     -178.54549    
    237700   337.95159     -218747.08      0             -218251.4      -395.38423    
    237800   336.83747     -218744.85      0             -218250.8      -719.25973    
    237900   339.11115     -218746.24      0             -218248.86     -230.60036    
    238000   342.13346     -218748.75      0             -218246.94     -684.13504    
    238100   340.50283     -218746.96      0             -218247.54     -177.3534     
    238200   338.84616     -218750.29      0             -218253.3      -839.05766    
    238300   338.81637     -218754.79      0             -218257.85     -818.19007    
    238400   335.02323     -218747.19      0             -218255.81     -520.71973    
    238500   340.30535     -218743.84      0             -218244.7      -316.11693    
    238600   343.43144     -218747.76      0             -218244.04     -977.81733    
    238700   337.02824     -218743.27      0             -218248.95     -855.01708    
    238800   336.48217     -218747.95      0             -218254.43     -141.34901    
    238900   335.59822     -218749.04      0             -218256.82     -869.01557    
    239000   342.7333      -218756.19      0             -218253.5      -2473.8616    
    239100   337.27832     -218739.83      0             -218245.14     -1134.9882    
    239200   343.48653     -218746.35      0             -218242.55     -504.27064    
    239300   343.3254      -218751.11      0             -218247.55     -550.44216    
    239400   339.58657     -218753.34      0             -218255.26      240.3145     
    239500   341.12796     -218755.36      0             -218255.02      36.508473    
    239600   337.65012     -218746.42      0             -218251.19     -1780.1018    
    239700   340.35769     -218745.56      0             -218246.35     -982.30842    
    239800   340.30241     -218742.94      0             -218243.81     -593.43277    
    239900   343.85274     -218741.96      0             -218237.63     -1403.8852    
    240000   343.10315     -218742.81      0             -218239.57     -847.24104    
    240100   341.05312     -218749         0             -218248.77     -1200.1885    
    240200   335.42996     -218746.34      0             -218254.36      352.88466    
    240300   335.01174     -218746.29      0             -218254.93     -111.26274    
    240400   339.96782     -218748.44      0             -218249.8      -286.39966    
    240500   342.28004     -218743.61      0             -218241.59      205.78097    
    240600   339.95903     -218741.41      0             -218242.79      4.8987528    
    240700   340.02243     -218745.35      0             -218246.64     -711.44625    
    240800   342.06293     -218750.7       0             -218248.99     -613.51696    
    240900   340.16293     -218750.65      0             -218251.73     -800.33741    
    241000   340.26968     -218751.85      0             -218252.77     -77.60876     
    241100   340.93531     -218750.14      0             -218250.08     -159.57103    
    241200   341.1565      -218743.41      0             -218243.03     -548.15918    
    241300   342.75833     -218746.01      0             -218243.28     -948.72792    
    241400   338.62648     -218747.96      0             -218251.29      6.3884324    
    241500   338.95356     -218751.6       0             -218254.45     -40.019955    
    241600   344.75082     -218758.89      0             -218253.24     -1017.9927    
    241700   337.67753     -218745.12      0             -218249.85     -220.84188    
    241800   344.19298     -218746.18      0             -218241.35     -640.11798    
    241900   343.89523     -218735.84      0             -218231.44     -1793.576     
    242000   345.6109      -218740.1       0             -218233.18      39.786304    
    242100   343.62681     -218751.7       0             -218247.7      -347.448      
    242200   339.05405     -218752.21      0             -218254.91     -811.07136    
    242300   336.90126     -218749.82      0             -218255.69      1022.7862    
    242400   336.96156     -218745.3       0             -218251.08      543.70705    
    242500   340.91065     -218744.86      0             -218244.84     -365.01019    
    242600   341.88589     -218745.05      0             -218243.6      -702.00604    
    242700   338.97325     -218749.45      0             -218252.28     -993.23984    
    242800   339.82752     -218754.23      0             -218255.8      -672.51846    
    242900   337.63285     -218748.51      0             -218253.3      -877.26323    
    243000   340.68893     -218749.56      0             -218249.86     -1168.2914    
    243100   341.57739     -218748.95      0             -218247.96     -532.17926    
    243200   342.54386     -218747.4       0             -218244.98     -187.59135    
    243300   344.56117     -218746.76      0             -218241.39     -882.49862    
    243400   341.91546     -218747.68      0             -218246.19     -404.41548    
    243500   340.6733      -218753.46      0             -218253.79     -960.1743     
    243600   339.23799     -218752.28      0             -218254.71     -747.35351    
    243700   338.55245     -218747.1       0             -218250.54     -610.77277    
    243800   340.37644     -218742.91      0             -218243.68     -424.53994    
    243900   341.90225     -218741.66      0             -218240.18     -947.29945    
    244000   341.48489     -218749.15      0             -218248.29     -637.25657    
    244100   340.62698     -218755.11      0             -218255.51     -239.03009    
    244200   339.7963      -218754.55      0             -218256.17     -583.91425    
    244300   338.10385     -218746.12      0             -218250.22     -1033.1122    
    244400   342.02678     -218746.05      0             -218244.39     -1124.2107    
    244500   341.7118      -218746.19      0             -218244.99     -1189.4248    
    244600   338.43615     -218750.08      0             -218253.69     -302.6524     
    244700   337.59056     -218750.94      0             -218255.79      211.11134    
    244800   340.79374     -218753         0             -218253.15     -104.18701    
    244900   341.46849     -218750.87      0             -218250.03     -31.862967    
    245000   341.50557     -218746.47      0             -218245.58      960.1215     
    245100   343.45415     -218744.44      0             -218240.69      7.4408821    
    245200   344.01676     -218745.48      0             -218240.91     -249.59328    
    245300   337.95002     -218746.39      0             -218250.71     -835.2046     
    245400   337.97067     -218751.03      0             -218255.32     -650.97021    
    245500   341.23619     -218754.7       0             -218254.2      -931.36307    
    245600   343.11672     -218751.35      0             -218248.09      592.68981    
    245700   344.85891     -218746.38      0             -218240.57     -556.20021    
    245800   346.79542     -218751.41      0             -218242.76      86.826592    
    245900   340.73152     -218747.41      0             -218247.65     -662.60157    
    246000   337.22607     -218745.3       0             -218250.68     -820.67954    
    246100   339.34799     -218749.13      0             -218251.41     -1142.6597    
    246200   336.6406      -218746.35      0             -218252.59     -823.51006    
    246300   334.98829     -218748.55      0             -218257.22      166.12566    
    246400   339.41063     -218754.01      0             -218256.19     -170.57928    
    246500   339.88001     -218746.81      0             -218248.3      -729.90041    
    246600   341.02007     -218745.67      0             -218245.49     -107.60887    
    246700   339.93258     -218746.07      0             -218247.49      722.96056    
    246800   335.14589     -218748.82      0             -218257.25      255.47743    
    246900   338.0713      -218757.15      0             -218261.3      -671.18219    
    247000   335.93004     -218749.05      0             -218256.33     -1085.639     
    247100   339.08446     -218747.59      0             -218250.25     -291.99935    
    247200   342.14345     -218749.45      0             -218247.63     -641.33348    
    247300   341.87341     -218750.33      0             -218248.9      -2424.157     
    247400   340.7833      -218755.01      0             -218255.18     -1459.2432    
    247500   337.86528     -218759.19      0             -218263.64      399.20852    
    247600   336.90305     -218754.56      0             -218260.42     -1080.5314    
    247700   338.44243     -218749.61      0             -218253.21      607.21422    
    247800   337.18027     -218744.74      0             -218250.19      425.08094    
    247900   342.65331     -218750.12      0             -218247.54     -106.5928     
    248000   343.28617     -218751.06      0             -218247.55     -330.89217    
    248100   340.99613     -218753.89      0             -218253.74     -1088.4014    
    248200   338.46732     -218757.04      0             -218260.6      -973.17261    
    248300   338.96699     -218756.06      0             -218258.89     -1497.8464    
    248400   336.08055     -218742.27      0             -218249.34     -1609.2413    
    248500   342.92311     -218749.52      0             -218246.55     -1570.5122    
    248600   343.21912     -218751.42      0             -218248.01     -1835.8732    
    248700   338.14587     -218749.29      0             -218253.33     -1920.5859    
    248800   339.17168     -218753.91      0             -218256.44     -1461.5979    
    248900   339.50981     -218753.19      0             -218255.22     -1247.4512    
    249000   343.0059      -218749.4       0             -218246.31     -221.4793     
    249100   344.06407     -218748.17      0             -218243.53      697.94511    
    249200   338.90929     -218745.74      0             -218248.65     -1368.6414    
    249300   337.032       -218749.34      0             -218255.01     -468.90332    
    249400   338.78073     -218751.46      0             -218254.57      165.62661    
    249500   340.941       -218751.51      0             -218251.45     -201.36944    
    249600   338.26536     -218745.21      0             -218249.07     -127.27565    
    249700   340.55916     -218749.2       0             -218249.69     -713.85578    
    249800   336.8398      -218752.96      0             -218258.91     -349.16394    
    249900   339.32047     -218758.66      0             -218260.98     -446.62221    
    250000   341.34503     -218754.79      0             -218254.13     -556.13135    
    250100   343.10862     -218751.02      0             -218247.77      678.73778    
    250200   342.60755     -218750.07      0             -218247.56     -193.7216     
    250300   338.46124     -218746.47      0             -218250.04     -724.79623    
    250400   340.42073     -218753.87      0             -218254.57     -435.35607    
    250500   336.84003     -218757.11      0             -218263.06     -312.182      
    250600   336.70735     -218756.79      0             -218262.94     -335.01793    
    250700   336.603       -218746.29      0             -218252.59     -795.8842     
    250800   340.35931     -218750.06      0             -218250.85      719.945      
    250900   339.89872     -218746.79      0             -218248.25     -380.5576     
    251000   338.43427     -218743.51      0             -218247.13     -8.2137502    
    251100   341.19201     -218748.23      0             -218247.8      -439.17358    
    251200   337.67986     -218749.05      0             -218253.77     -281.85316    
    251300   336.75893     -218752.2       0             -218258.27      125.15153    
    251400   336.58754     -218750.63      0             -218256.95     -111.84205    
    251500   341.8285      -218747.65      0             -218246.28     -1272.2421    
    251600   341.1689      -218744.39      0             -218243.99     -479.18119    
    251700   338.7717      -218744.67      0             -218247.79      53.696449    
    251800   339.75019     -218752.72      0             -218254.4      -359.91647    
    251900   340.39178     -218756.22      0             -218256.97      192.11676    
    252000   342.73681     -218752.79      0             -218250.1      -481.63605    
    252100   346.8872      -218748.59      0             -218239.81     -480.85095    
    252200   339.29844     -218742.11      0             -218244.46     -93.866542    
    252300   340.29231     -218752.1       0             -218252.99      494.76972    
    252400   338.00521     -218751.28      0             -218255.53     -692.92759    
    252500   338.27411     -218749.42      0             -218253.27     -210.09015    
    252600   342.56724     -218747.85      0             -218245.41      72.392618    
    252700   345.01372     -218747.11      0             -218241.08     -498.44276    
    252800   342.43315     -218747.67      0             -218245.42     -1012.8095    
    252900   341.21355     -218749.75      0             -218249.29     -457.34563    
    253000   340.20664     -218749.76      0             -218250.77      411.48899    
    253100   334.59805     -218742.16      0             -218251.4       33.003368    
    253200   342.71838     -218754.64      0             -218251.97     -607.01955    
    253300   339.16375     -218750.21      0             -218252.76      42.421113    
    253400   338.08217     -218746.24      0             -218250.37      83.966302    
    253500   345.26437     -218751.34      0             -218244.93      434.24513    
    253600   343.6172      -218746.32      0             -218242.33      810.33041    
    253700   342.58497     -218751.12      0             -218248.65     -156.75816    
    253800   337.03519     -218750.76      0             -218256.43     -2452.4911    
    253900   337.72163     -218749.93      0             -218254.59     -1430.2154    
    254000   341.17553     -218750.01      0             -218249.6      -1168.2605    
    254100   338.57532     -218741.77      0             -218245.18     -1440.6932    
    254200   342.68923     -218742.47      0             -218239.84     -258.87332    
    254300   342.24762     -218738.8       0             -218236.82     -265.20395    
    254400   342.38132     -218747.91      0             -218245.73     -518.47883    
    254500   337.01662     -218745.82      0             -218251.52     -463.66758    
    254600   335.16996     -218746.24      0             -218254.64     -1189.641     
    254700   335.92912     -218745.41      0             -218252.7      -1018.8152    
    254800   343.29167     -218747.25      0             -218243.74     -1377.4783    
    254900   342.32049     -218742.35      0             -218240.27     -441.92562    
    255000   339.71816     -218744.31      0             -218246.04     -234.83159    
    255100   336.54662     -218744.09      0             -218250.47     -693.0751     
    255200   339.7464      -218749.5       0             -218251.19     -1174.9908    
    255300   340.11724     -218749.71      0             -218250.85     -792.28299    
    255400   342.20508     -218752.9       0             -218250.98      80.527714    
    255500   340.31716     -218749.39      0             -218250.24     -192.24409    
    255600   341.11508     -218748.14      0             -218247.82      62.994099    
    255700   339.60696     -218743.83      0             -218245.72     -114.01785    
    255800   340.94724     -218748.91      0             -218248.84     -1118.83      
    255900   338.90106     -218752.41      0             -218255.34     -1305.5824    
    256000   337.46614     -218754.66      0             -218259.7      -333.53107    
    256100   341.07436     -218753.21      0             -218252.95     -476.3349     
    256200   341.98545     -218747.68      0             -218246.08      699.39621    
    256300   342.88684     -218749.74      0             -218246.82      469.43476    
    256400   338.19297     -218748.29      0             -218252.26     -36.894402    
    256500   339.4152      -218753.97      0             -218256.15     -1340.0353    
    256600   339.51371     -218750.76      0             -218252.79     -938.70731    
    256700   340.05262     -218740.56      0             -218241.8      -179.93132    
    256800   343.63865     -218745.92      0             -218241.9      -813.3623     
    256900   340.33726     -218747.36      0             -218248.18      7.3516624    
    257000   339.84206     -218751.04      0             -218252.59     -225.07264    
    257100   336.88501     -218747.17      0             -218253.06     -613.33196    
    257200   343.39527     -218752.59      0             -218248.93     -273.90149    
    257300   341.02077     -218745.41      0             -218245.23     -334.36449    
    257400   344.5377      -218743.59      0             -218238.25     -54.589991    
    257500   345.79934     -218747.66      0             -218240.47      221.94345    
    257600   339.65        -218748.09      0             -218249.92     -136.64       
    257700   338.81739     -218749.88      0             -218252.93      442.27214    
    257800   340.31786     -218754.06      0             -218254.91      211.54251    
    257900   338.74635     -218749.95      0             -218253.11     -759.97424    
    258000   341.51443     -218744.58      0             -218243.68     -554.27611    
    258100   342.4506      -218744.2       0             -218241.92     -920.23447    
    258200   341.70118     -218748.04      0             -218246.86     -1050.1671    
    258300   337.71934     -218750.57      0             -218255.23     -2057.1781    
    258400   337.49771     -218750.94      0             -218255.93     -1406.6101    
    258500   338.3953      -218749.12      0             -218252.79     -709.61111    
    258600   340.84297     -218747.03      0             -218247.11      931.28148    
    258700   341.45557     -218746.72      0             -218245.9      -138.49201    
    258800   338.75628     -218750.16      0             -218253.3      -714.67018    
    258900   335.38858     -218752.86      0             -218260.94     -429.35183    
    259000   333.75799     -218746.61      0             -218257.09     -1114.3995    
    259100   339.36089     -218748.8       0             -218251.05     -218.33228    
    259200   341.25993     -218749.59      0             -218249.06     -238.129      
    259300   338.10256     -218744.82      0             -218248.92     -717.2074     
    259400   338.16632     -218746.73      0             -218250.74     -424.4687     
    259500   337.75966     -218756.86      0             -218261.46      131.9176     
    259600   334.81853     -218752.38      0             -218261.29     -873.47359    
    259700   339.84102     -218751.33      0             -218252.88     -1167.4574    
    259800   338.42504     -218744.76      0             -218248.39     -540.71316    
    259900   339.23796     -218744.6       0             -218247.03     -324.51641    
    260000   341.28945     -218749.27      0             -218248.69     -1144.9612    
    260100   336.2404      -218750.92      0             -218257.75     -365.26198    
    260200   335.05686     -218751.83      0             -218260.4      -746.30026    
    260300   340.78679     -218753.95      0             -218254.12      107.97764    
    260400   339.75814     -218749.33      0             -218251         350.41933    
    260500   341.03892     -218750.11      0             -218249.9       470.01568    
    260600   343.18901     -218752.46      0             -218249.1      -644.83163    
    260700   338.16996     -218746.41      0             -218250.41     -1078.9387    
    260800   338.10262     -218750.04      0             -218254.14     -1446.792     
    260900   337.84215     -218752.69      0             -218257.18     -509.61416    
    261000   339.67855     -218752.18      0             -218253.97     -191.09337    
    261100   340.35566     -218745.38      0             -218246.17      266.2531     
    261200   343.46787     -218747.54      0             -218243.77     -23.536628    
    261300   342.06477     -218748.91      0             -218247.2      -666.83438    
    261400   340.32971     -218749.64      0             -218250.47      702.81463    
    261500   342.70802     -218753.28      0             -218250.62      821.33091    
    261600   338.49508     -218746.96      0             -218250.48     -505.52804    
    261700   342.2898      -218750.3       0             -218248.26     -746.73561    
    261800   341.55047     -218743.02      0             -218242.06     -662.64654    
    261900   342.17339     -218740.17      0             -218238.3      -1756.061     
    262000   342.24315     -218749.04      0             -218247.06     -703.52784    
    262100   337.58492     -218747.17      0             -218252.03      442.9504     
    262200   339.86497     -218751.07      0             -218252.59     -358.86659    
    262300   342.4783      -218752.44      0             -218250.12     -556.01691    
    262400   343.4699      -218747.93      0             -218244.16      269.12563    
    262500   344.28378     -218744.64      0             -218239.67     -1396.5087    
    262600   343.12718     -218746.4       0             -218243.13     -1726.8691    
    262700   337.82926     -218749.19      0             -218253.69     -1305.8944    
    262800   338.73094     -218752.23      0             -218255.41     -1399.2514    
    262900   338.52766     -218748.68      0             -218252.16     -406.07347    
    263000   344.20434     -218749.74      0             -218244.89      456.80795    
    263100   340.99762     -218742.66      0             -218242.52     -580.66727    
    263200   339.80191     -218749.73      0             -218251.34     -868.40703    
    263300   336.57408     -218752.04      0             -218258.39     -12.811314    
    263400   339.48591     -218752.4       0             -218254.47      791.24547    
    263500   338.44932     -218744.79      0             -218248.38     -359.24035    
    263600   343.2523      -218747.45      0             -218243.99     -1369.4918    
    263700   340.95873     -218747.5       0             -218247.41     -524.31711    
    263800   339.9451      -218753.37      0             -218254.76     -1166.813     
    263900   337.72782     -218750.04      0             -218254.69     -31.639607    
    264000   337.6797      -218747.92      0             -218252.64      1013.5425    
    264100   341.17244     -218749.61      0             -218249.21      18.092066    
    264200   341.79585     -218747.69      0             -218246.37     -257.22226    
    264300   344.69404     -218748.82      0             -218243.25     -1323.4267    
    264400   345.85497     -218751.34      0             -218244.07     -1482.012     
    264500   335.93613     -218745.53      0             -218252.81     -1657.7299    
    264600   336.34413     -218749.32      0             -218256        -438.298      
    264700   337.37354     -218747.71      0             -218252.87     -635.99586    
    264800   340.42245     -218743.86      0             -218244.55     -645.66408    
    264900   342.08699     -218743.39      0             -218241.65     -678.91697    
    265000   343.00794     -218747.56      0             -218244.46     -1192.6928    
    265100   342.43898     -218751.61      0             -218249.35     -583.72275    
    265200   340.39653     -218753.9       0             -218254.63     -900.16478    
    265300   340.04066     -218752.81      0             -218254.06     -700.81215    
    265400   342.83697     -218749.19      0             -218246.35      2.7865884    
    265500   342.56074     -218742.8       0             -218240.36      139.7504     
    265600   344.29885     -218749.21      0             -218244.22      993.43287    
    265700   341.92936     -218751         0             -218249.49     -748.99485    
    265800   337.53071     -218747.05      0             -218251.99     -239.50296    
    265900   337.08036     -218747.2       0             -218252.79      100.97927    
    266000   341.05188     -218750.63      0             -218250.4       361.9176     
    266100   344.43021     -218744.44      0             -218239.26     -743.09143    
    266200   344.93152     -218743.64      0             -218237.72     -298.7104     
    266300   342.34891     -218747.77      0             -218245.64     -1228.5127    
    266400   337.24847     -218744.79      0             -218250.14     -1467.8131    
    266500   337.08887     -218745.79      0             -218251.38     -1114.6315    
    266600   338.87566     -218749.13      0             -218252.09     -416.24138    
    266700   339.72674     -218749.66      0             -218251.37     -68.509086    
    266800   336.46687     -218742.72      0             -218249.22     -91.806318    
    266900   344.18773     -218750.41      0             -218245.58      205.61697    
    267000   342.90953     -218747.44      0             -218244.49     -390.16105    
    267100   339.51243     -218749.74      0             -218251.77     -240.884      
    267200   339.51785     -218755.33      0             -218257.35      600.0659     
    267300   338.36718     -218751.58      0             -218255.29     -745.8844     
    267400   340.03863     -218748.68      0             -218249.94     -28.910959    
    267500   342.45568     -218746.26      0             -218243.98     -1898.7465    
    267600   342.47456     -218736.29      0             -218233.98     -2532.4544    
    267700   343.68108     -218737.07      0             -218232.99     -1960.2824    
    267800   338.76176     -218739.81      0             -218242.94     -701.88539    
    267900   342.66899     -218751.02      0             -218248.42     -377.18401    
    268000   338.12379     -218749.16      0             -218253.23     -11.455178    
    268100   339.45576     -218752.89      0             -218255         504.61715    
    268200   338.00954     -218748.68      0             -218252.91      200.53012    
    268300   340.27001     -218744.04      0             -218244.97      752.69716    
    268400   341.67635     -218743.84      0             -218242.7       896.86584    
    268500   338.08058     -218747.04      0             -218251.18      602.26672    
    268600   339.54633     -218754.05      0             -218256.03     -1300.7355    
    268700   337.8813      -218749.97      0             -218254.4      -1404.2843    
    268800   339.9786      -218748.77      0             -218250.12     -1657.3379    
    268900   342.60726     -218747.11      0             -218244.61     -964.43997    
    269000   343.53535     -218744.03      0             -218240.16     -593.37407    
    269100   340.96556     -218740.15      0             -218240.05     -948.58306    
    269200   338.27725     -218745.73      0             -218249.58     -566.05278    
    269300   335.70791     -218746.53      0             -218254.14     -117.03504    
    269400   340.95015     -218755.39      0             -218255.31      545.65125    
    269500   339.70715     -218749.73      0             -218251.47     -520.69705    
    269600   344.14204     -218747.31      0             -218242.56     -590.89547    
    269700   342.62158     -218746.76      0             -218244.23     -790.00397    
    269800   336.71052     -218743.68      0             -218249.82     -1126.127     
    269900   340.65083     -218751.54      0             -218251.9      -775.97914    
    270000   339.61584     -218750.5       0             -218252.38      82.434536    
    270100   339.13311     -218746.73      0             -218249.32     -1019.179     
    270200   341.77935     -218748.76      0             -218247.47     -710.71705    
    270300   341.82696     -218746.58      0             -218245.22     -545.01082    
    270400   341.31661     -218747.38      0             -218246.77      179.48101    
    270500   338.20526     -218749.06      0             -218253.01     -9.0124073    
    270600   337.85711     -218751.3       0             -218255.76     -889.19265    
    270700   339.36846     -218751.32      0             -218253.56     -1373.017     
    270800   341.95403     -218746         0             -218244.45      270.96263    
    270900   338.47105     -218738.65      0             -218242.21      201.11283    
    271000   342.25522     -218749.09      0             -218247.1       171.47894    
    271100   342.96309     -218758.51      0             -218255.48      363.23849    
    271200   338.42167     -218751.77      0             -218255.4      -263.26879    
    271300   341.71704     -218751.75      0             -218250.55     -744.21128    
    271400   341.80567     -218747.66      0             -218246.33     -967.18389    
    271500   340.84431     -218746.3       0             -218246.37     -441.18213    
    271600   339.09513     -218750.04      0             -218252.68     -69.817468    
    271700   336.23668     -218752.47      0             -218259.3      -361.18446    
    271800   332.23976     -218745.09      0             -218257.79     -1295.8083    
    271900   338.86615     -218746.24      0             -218249.22     -400.58064    
    272000   339.34272     -218743.56      0             -218245.85     -762.53275    
    272100   339.40856     -218746.31      0             -218248.49     -721.60813    
    272200   341.02419     -218752.86      0             -218252.67     -1105.1373    
    272300   336.90786     -218749.28      0             -218255.13      427.05514    
    272400   337.0365      -218750.49      0             -218256.15      18.391897    
    272500   335.12721     -218744.34      0             -218252.8      -37.058908    
    272600   341.41235     -218746.78      0             -218246.02      85.117173    
    272700   342.68021     -218746.34      0             -218243.72     -758.58391    
    272800   339.03372     -218746.98      0             -218249.71     -1035.3888    
    272900   338.61823     -218753.13      0             -218256.48     -852.59583    
    273000   336.83337     -218748.59      0             -218254.55     -1539.8927    
    273100   340.3667      -218750.46      0             -218251.24     -1209.4171    
    273200   338.42978     -218745.57      0             -218249.19     -540.2628     
    273300   341.68878     -218748.73      0             -218247.57     -100.44647    
    273400   344.14009     -218747.46      0             -218242.7      -270.98833    
    273500   340.21733     -218742.98      0             -218243.98     -1005.024     
    273600   339.54008     -218749.77      0             -218251.76     -466.19616    
    273700   338.45856     -218752.45      0             -218256.03     -588.60631    
    273800   338.79561     -218752.43      0             -218255.51     -1029.4963    
    273900   341.8319      -218749.09      0             -218247.72     -1238.4477    
    274000   344.36925     -218745.84      0             -218240.74     -789.64003    
    274100   340.83078     -218743.47      0             -218243.57     -1585.6489    
    274200   341.23329     -218750.43      0             -218249.94     -1399.2262    
    274300   339.17989     -218750.76      0             -218253.27     -1253.2838    
    274400   336.50167     -218746.21      0             -218252.66     -1210.5997    
    274500   343.56887     -218750.85      0             -218246.94     -1524.0298    
    274600   345.65517     -218745.61      0             -218238.63      14.357101    
    274700   343.93143     -218746.52      0             -218242.07     -1624.6138    
    274800   340.51753     -218748.47      0             -218249.03     -649.23279    
    274900   338.39754     -218748.08      0             -218251.75     -474.04864    
    275000   338.814       -218749.36      0             -218252.42     -718.73412    
    275100   337.87759     -218747.28      0             -218251.71     -953.72157    
    275200   342.03247     -218748.2       0             -218246.54     -752.52484    
    275300   341.56199     -218742.76      0             -218241.79     -262.4569     
    275400   344.0074      -218749.69      0             -218245.13     -1480.8672    
    275500   342.87827     -218757.16      0             -218254.26     -1500.8752    
    275600   341.54893     -218756.33      0             -218255.38     -505.14257    
    275700   341.45672     -218752.77      0             -218251.95     -341.95007    
    275800   339.05382     -218744.59      0             -218247.29     -1930.5094    
    275900   344.34569     -218743.58      0             -218238.53     -1023.5844    
    276000   346.58167     -218741.3       0             -218232.96     -1532.9479    
    276100   345.10952     -218748.38      0             -218242.21     -727.99554    
    276200   342.81764     -218749.95      0             -218247.13      738.65004    
    276300   337.10525     -218747.63      0             -218253.19      1022.9839    
    276400   337.07322     -218750.93      0             -218256.54     -775.0768     
    276500   340.05597     -218752.68      0             -218253.92     -267.32436    
    276600   336.85102     -218740.74      0             -218246.68     -1207.6141    
    276700   341.34806     -218742.67      0             -218242.01     -1263.1415    
    276800   342.84827     -218748.27      0             -218245.41      44.856086    
    276900   341.79502     -218755.79      0             -218254.48     -674.82474    
    277000   339.50966     -218752.93      0             -218254.96      61.972872    
    277100   340.06181     -218750.44      0             -218251.66     -393.0373     
    277200   342.07407     -218749.88      0             -218248.15     -1159.6062    
    277300   338.27144     -218741.45      0             -218245.3      -538.98764    
    277400   340.55221     -218741.69      0             -218242.2      -116.73345    
    277500   340.51405     -218743.8       0             -218244.36      646.21818    
    277600   337.59841     -218748.91      0             -218253.75      639.30776    
    277700   336.51162     -218750.4       0             -218256.83     -1438.7383    
    277800   338.39249     -218749.05      0             -218252.73     -215.71585    
    277900   341.00249     -218746.66      0             -218246.5       325.542      
    278000   341.13338     -218745.11      0             -218244.77     -293.9728     
    278100   340.172       -218751.33      0             -218252.4      -398.00673    
    278200   333.68144     -218750.49      0             -218261.07     -233.76683    
    278300   337.88646     -218753.45      0             -218257.87     -978.76115    
    278400   335.9687      -218742.59      0             -218249.82     -2425.3842    
    278500   337.21691     -218740.1       0             -218245.5       92.785066    
    278600   340.24385     -218745.84      0             -218246.8      -942.18284    
    278700   338.47572     -218749.22      0             -218252.77     -445.22181    
    278800   337.14738     -218756.91      0             -218262.41      407.11715    
    278900   336.33815     -218755.3       0             -218261.99     -146.44725    
    279000   337.77463     -218751.9       0             -218256.48     -581.08319    
    279100   340.37225     -218750.73      0             -218251.5       13.786343    
    279200   341.55982     -218749.09      0             -218248.11     -181.59086    
    279300   337.86525     -218743.75      0             -218248.2      -877.03179    
    279400   340.39777     -218751.31      0             -218252.05     -656.31507    
    279500   335.67263     -218751.07      0             -218258.73     -329.86958    
    279600   337.76482     -218754.77      0             -218259.36     -1011.4692    
    279700   346.21884     -218757.81      0             -218250.01     -1601.7715    
    279800   339.23868     -218744.66      0             -218247.09     -262.74461    
    279900   343.42004     -218752.27      0             -218248.58     -1249.0454    
    280000   342.58439     -218753.82      0             -218251.35     -670.81887    
    280100   336.33415     -218752.84      0             -218259.54     -86.816964    
    280200   335.77898     -218755.16      0             -218262.67      454.32783    
    280300   335.34269     -218746.53      0             -218254.68     -715.99211    
    280400   340.68093     -218750.74      0             -218251.06      555.59849    
    280500   339.60389     -218748.56      0             -218250.46     -1149.2584    
    280600   341.53386     -218751.35      0             -218250.42     -197.23722    
    280700   340.50267     -218751.6       0             -218252.17     -399.71578    
    280800   340.47129     -218755.11      0             -218255.73     -830.10312    
    280900   338.63903     -218754.95      0             -218258.26     -881.28858    
    281000   338.40312     -218749.13      0             -218252.79     -699.94355    
    281100   343.70001     -218748.96      0             -218244.85     -414.07746    
    281200   342.01469     -218747.57      0             -218245.93     -424.98679    
    281300   338.26767     -218748         0             -218251.86      550.80853    
    281400   336.8848      -218747.49      0             -218253.37      364.38088    
    281500   338.71466     -218749.31      0             -218252.51      51.010445    
    281600   340.24003     -218750.85      0             -218251.81      324.48352    
    281700   340.84904     -218750.62      0             -218250.69     -483.94241    
    281800   341.47703     -218751.04      0             -218250.19     -630.53749    
    281900   338.31237     -218747.19      0             -218250.98     -816.54027    
    282000   339.59476     -218750.71      0             -218252.62      188.56409    
    282100   336.6953      -218747.59      0             -218253.75     -9.5813558    
    282200   337.75853     -218748.19      0             -218252.8      -508.55492    
    282300   340.54293     -218748.51      0             -218249.03      55.149637    
    282400   340.16552     -218742.3       0             -218243.38      114.25452    
    282500   346.77457     -218748.36      0             -218239.74      386.15715    
    282600   337.75339     -218745.16      0             -218249.77     -207.39898    
    282700   340.02847     -218752.51      0             -218253.78     -284.42401    
    282800   340.06915     -218752.49      0             -218253.71     -1328.6842    
    282900   339.58628     -218748.6       0             -218250.52     -1601.1549    
    283000   339.24016     -218741.09      0             -218243.52     -351.76566    
    283100   343.93393     -218746.03      0             -218241.58     -684.63166    
    283200   338.61075     -218749.45      0             -218252.8       569.00499    
    283300   336.39182     -218749.85      0             -218256.46     -422.75103    
    283400   341.1433      -218752.87      0             -218252.51     -841.79562    
    283500   340.54466     -218746.49      0             -218247.01      520.60917    
    283600   340.03225     -218745.08      0             -218246.35     -349.07637    
    283700   341.09875     -218753.24      0             -218252.94     -1643.047     
    283800   337.9969      -218756.15      0             -218260.4      -1918.6099    
    283900   340.49897     -218756.01      0             -218256.6      -812.36027    
    284000   340.25422     -218748.65      0             -218249.59     -792.14885    
    284100   344.1649      -218751.92      0             -218247.13     -489.91775    
    284200   338.68062     -218745.51      0             -218248.76     -1303.1388    
    284300   336.90896     -218746.72      0             -218252.57     -918.14311    
    284400   339.4559      -218759.6       0             -218261.71     -950.03008    
    284500   333.29188     -218755.01      0             -218266.17     -537.0378     
    284600   335.59407     -218750.86      0             -218258.64     -316.02437    
    284700   336.12315     -218746.69      0             -218253.69      389.24291    
    284800   339.74381     -218747.61      0             -218249.3       727.69568    
    284900   337.69514     -218742.88      0             -218247.58     -395.00508    
    285000   342.50898     -218750.31      0             -218247.94      18.623939    
    285100   339.42044     -218754.27      0             -218256.44     -342.32891    
    285200   335.59825     -218751.68      0             -218259.45     -574.94525    
    285300   338.58177     -218749.88      0             -218253.28     -1749.609     
    285400   339.51187     -218745.32      0             -218247.35     -546.32473    
    285500   339.7784      -218745.98      0             -218247.62     -1003.2288    
    285600   340.14156     -218748.24      0             -218249.35     -1152.4812    
    285700   338.13746     -218750.26      0             -218254.31     -477.57758    
    285800   334.36459     -218753.15      0             -218262.73     -1367.8873    
    285900   334.65419     -218754.02      0             -218263.18     -67.92486     
    286000   340.20836     -218753.14      0             -218254.15     -300.81113    
    286100   342.3704      -218754.26      0             -218252.11     -445.0815     
    286200   342.39032     -218752.52      0             -218250.33     -417.55434    
    286300   342.16076     -218748.46      0             -218246.61     -507.14603    
    286400   341.87934     -218746.04      0             -218244.6      -550.38727    
    286500   340.13159     -218748.19      0             -218249.31     -791.19199    
    286600   338.50831     -218753.36      0             -218256.86     -1341.9676    
    286700   339.12602     -218753.09      0             -218255.69     -1016.4554    
    286800   341.70637     -218750.65      0             -218249.46     -1442.4011    
    286900   343.34016     -218748.4       0             -218244.82     -1100.8603    
    287000   341.41055     -218746.66      0             -218245.91     -1097.0788    
    287100   340.38031     -218748.29      0             -218249.05     -1703.895     
    287200   336.33643     -218745.71      0             -218252.4      -1423.664     
    287300   338.93145     -218752.02      0             -218254.9      -282.4254     
    287400   337.13144     -218751.56      0             -218257.08     -538.33795    
    287500   336.70087     -218749.24      0             -218255.4       1761.1703    
    287600   342.71156     -218749.56      0             -218246.9      -289.25144    
    287700   343.19861     -218749.04      0             -218245.67      690.73162    
    287800   338.87835     -218748.35      0             -218251.31     -25.562846    
    287900   340.36526     -218755.23      0             -218256.01     -1131.9764    
    288000   336.10978     -218756.23      0             -218263.25     -602.6754     
    288100   332.26412     -218756.57      0             -218269.23     -1656.5122    
    288200   338.87554     -218756.65      0             -218259.62     -1811.8164    
    288300   339.70606     -218751.36      0             -218253.1      -918.67948    
    288400   339.26443     -218745.46      0             -218247.86      168.56954    
    288500   341.91601     -218746.66      0             -218245.17     -243.85999    
    288600   340.35465     -218747.92      0             -218248.72     -749.65522    
    288700   338.07076     -218752.93      0             -218257.07     -628.55746    
    288800   340.11101     -218758         0             -218259.15     -472.48643    
    288900   339.48409     -218752.5       0             -218254.57     -1859.108     
    289000   335.35874     -218743.66      0             -218251.78     -640.24083    
    289100   340.1745      -218748.17      0             -218249.23      157.89519    
    289200   341.71766     -218748.51      0             -218247.31     -307.05439    
    289300   342.58793     -218748.3       0             -218245.83     -24.035717    
    289400   345.5733      -218753.42      0             -218246.56     -277.73938    
    289500   343.55337     -218756.26      0             -218252.37      227.98897    
    289600   336.12759     -218749.79      0             -218256.78      578.80455    
    289700   336.79237     -218748.46      0             -218254.49      266.41633    
    289800   341.32732     -218745.28      0             -218244.65     -1185.3935    
    289900   342.47592     -218744.73      0             -218242.41      79.30774     
    290000   341.90738     -218747.58      0             -218246.1      -1199.8094    
    290100   339.67245     -218748.7       0             -218250.5      -875.58471    
    290200   338.97704     -218748.33      0             -218251.14     -479.30054    
    290300   342.85418     -218753.48      0             -218250.61     -1596.7855    
    290400   340.12623     -218748.92      0             -218250.05     -1574.4753    
    290500   340.56365     -218746.05      0             -218246.54     -532.46501    
    290600   342.96531     -218744.87      0             -218241.84     -495.80619    
    290700   340.23916     -218744.75      0             -218245.72     -408.07954    
    290800   341.72256     -218754.38      0             -218253.17     -887.27252    
    290900   337.68807     -218750.1       0             -218254.8      -2071.3036    
    291000   339.47272     -218749.63      0             -218251.72     -596.95517    
    291100   340.01709     -218745.65      0             -218246.94      4.7301536    
    291200   343.33777     -218750.55      0             -218246.97      43.587904    
    291300   344.01084     -218753.59      0             -218249.02      587.06948    
    291400   339.79553     -218751.45      0             -218253.07      396.43155    
    291500   340.08162     -218753.88      0             -218255.08     -433.19455    
    291600   337.11593     -218749.98      0             -218255.52      144.06905    
    291700   339.17532     -218746.19      0             -218248.72     -1315.8875    
    291800   339.13184     -218740.23      0             -218242.82     -1917.9716    
    291900   341.77896     -218745.77      0             -218244.48     -1725.2808    
    292000   338.4246      -218749.09      0             -218252.71     -835.30968    
    292100   339.43304     -218752.89      0             -218255.04     -108.15766    
    292200   340.77258     -218752.75      0             -218252.94     -363.96839    
    292300   346.513       -218757.02      0             -218248.79      357.81169    
    292400   343.05308     -218750.71      0             -218247.55     -640.69254    
    292500   342.4965      -218745.75      0             -218243.41     -1863.1624    
    292600   344.36086     -218745.24      0             -218240.16     -52.745641    
    292700   341.07922     -218745.62      0             -218245.35      312.98267    
    292800   340.65717     -218752.31      0             -218252.66     -1015.8423    
    292900   339.61957     -218752.38      0             -218254.26     -701.94165    
    293000   341.66955     -218752.41      0             -218251.28     -855.75169    
    293100   345.89081     -218749.46      0             -218242.14     -494.73338    
    293200   345.60849     -218746.34      0             -218239.43     -604.66737    
    293300   342.75807     -218746.9       0             -218244.17     -253.218      
    293400   338.90603     -218744.47      0             -218247.39     -1977.0854    
    293500   337.97387     -218746.22      0             -218250.51     -1548.0717    
    293600   338.07543     -218750.6       0             -218254.73     -1183.4397    
    293700   336.31924     -218753.5       0             -218260.22     -249.41775    
    293800   335.32009     -218755.43      0             -218263.61     -856.58071    
    293900   338.90509     -218751.5       0             -218254.43     -342.63066    
    294000   341.25231     -218748.96      0             -218248.44      86.007808    
    294100   339.4953      -218744.09      0             -218246.15     -182.12886    
    294200   345.18145     -218752.39      0             -218246.11     -703.17365    
    294300   338.89203     -218750.5       0             -218253.44     -1191.6749    
    294400   337.77184     -218755.09      0             -218259.67     -993.8084     
    294500   339.54654     -218754.02      0             -218256        -350.28614    
    294600   340.67173     -218751.08      0             -218251.41     -977.62657    
    294700   340.11511     -218748.98      0             -218250.13     -1301.7865    
    294800   340.31659     -218749.64      0             -218250.49     -1224.1977    
    294900   339.21855     -218745.51      0             -218247.97     -1334.1283    
    295000   343.45792     -218744.85      0             -218241.09     -528.16355    
    295100   342.89807     -218745.2       0             -218242.27     -613.16259    
    295200   336.98645     -218745.99      0             -218251.73     -7.6874182    
    295300   343.03351     -218755.88      0             -218252.75      1260.6069    
    295400   340.13204     -218751.16      0             -218252.29      773.32041    
    295500   344.20945     -218751.77      0             -218246.91     -841.78817    
    295600   342.42719     -218741.28      0             -218239.04     -73.942444    
    295700   342.8925      -218744.62      0             -218241.69      548.66244    
    295800   337.10613     -218745.08      0             -218250.64     -1641.3691    
    295900   340.50334     -218750.99      0             -218251.57     -895.92684    
    296000   337.0173      -218746.78      0             -218252.47     -1040.4732    
    296100   339.1656      -218747.31      0             -218249.85     -1204.0626    
    296200   340.95969     -218744.43      0             -218244.34     -1556.2282    
    296300   341.8691      -218741.92      0             -218240.5      -1430.4357    
    296400   343.83978     -218748.25      0             -218243.94     -50.583213    
    296500   338.71066     -218749.54      0             -218252.75      214.11619    
    296600   339.23229     -218751.67      0             -218254.11     -141.82089    
    296700   339.07523     -218748.59      0             -218251.26     -777.59785    
    296800   339.83417     -218741.62      0             -218243.18     -1007.7408    
    296900   343.98871     -218744.75      0             -218240.22      339.19284    
    297000   341.84974     -218751.25      0             -218249.85     -271.99772    
    297100   340.51554     -218753.66      0             -218254.22     -274.7937     
    297200   338.18751     -218749.29      0             -218253.26      1165.8857    
    297300   340.51778     -218748.16      0             -218248.72     -686.67323    
    297400   341.11835     -218744.32      0             -218243.99     -2048.336     
    297500   344.22825     -218748.71      0             -218243.83     -1112.1682    
    297600   341.11907     -218752.86      0             -218252.53     -888.21596    
    297700   335.66221     -218750.26      0             -218257.94     -1014.8024    
    297800   335.34468     -218745.96      0             -218254.1      -2142.5457    
    297900   342.00956     -218749.49      0             -218247.86     -1745.6512    
    298000   337.32854     -218741.1       0             -218246.34     -1019.1245    
    298100   342.91399     -218749.8       0             -218246.84      912.64867    
    298200   338.99237     -218747.82      0             -218250.61      574.6114     
    298300   337.93731     -218747.38      0             -218251.72      355.12475    
    298400   341.7664      -218752.8       0             -218251.53     -776.08851    
    298500   341.9002      -218748.48      0             -218247.01     -414.90378    
    298600   341.9426      -218744.57      0             -218243.03      969.19687    
    298700   342.08412     -218748.21      0             -218246.47     -316.52919    
    298800   338.39594     -218749.59      0             -218253.26     -602.6408     
    298900   339.21848     -218753.79      0             -218256.25     -1413.4836    
    299000   339.64469     -218752.55      0             -218254.39     -1766.2421    
    299100   343.03732     -218745.05      0             -218241.91     -102.83175    
    299200   342.56485     -218742.72      0             -218240.27     -1222.8979    
    299300   339.32713     -218744.74      0             -218247.05     -252.14665    
    299400   337.74754     -218748.62      0             -218253.24      649.5161     
    299500   340.85179     -218753.83      0             -218253.9       68.473372    
    299600   341.3374      -218751.38      0             -218250.73      182.87815    
    299700   341.69481     -218742.54      0             -218241.37      708.35205    
    299800   340.97265     -218739.52      0             -218239.41      220.38366    
    299900   342.20656     -218749.58      0             -218247.66     -561.24788    
    300000   340.57673     -218750.2       0             -218250.67     -1343.7081    
    300100   336.90533     -218745.55      0             -218251.41     -1155.6016    
    300200   338.60144     -218747.54      0             -218250.91     -1122.7236    
    300300   340.48787     -218748.27      0             -218248.87     -862.85661    
    300400   340.59728     -218744.55      0             -218244.99     -1019.5628    
    300500   342.79488     -218746.59      0             -218243.81      348.14443    
    300600   337.5605      -218746.04      0             -218250.93     -1411.3451    
    300700   338.19247     -218751.62      0             -218255.59     -509.0785     
    300800   341.92242     -218756.77      0             -218255.27     -973.34585    
    300900   343.72432     -218750.51      0             -218246.37     -280.5227     
    301000   347.33874     -218751.03      0             -218241.58     -513.24977    
    301100   340.39719     -218746.05      0             -218246.78     -335.81346    
    301200   339.74832     -218750.43      0             -218252.12     -464.23047    
    301300   336.96325     -218748.37      0             -218254.14      55.200128    
    301400   341.84567     -218754.14      0             -218252.75     -919.42353    
    301500   339.81136     -218743.01      0             -218244.6      -1659.9114    
    301600   342.65232     -218740.35      0             -218237.78     -1495.8779    
    301700   340.44741     -218743.88      0             -218244.55     -666.97341    
    301800   342.00426     -218751.36      0             -218249.74      16.518003    
    301900   340.1569      -218751.4       0             -218252.49     -241.9802     
    302000   338.01456     -218749.52      0             -218253.75     -359.31277    
    302100   345.03089     -218754.34      0             -218248.28     -724.64771    
    302200   345.05945     -218746.56      0             -218240.46     -478.74345    
    302300   338.25176     -218739.33      0             -218243.21     -425.63377    
    302400   340.0874      -218749.3       0             -218250.49     -1226.367     
    302500   338.41185     -218749.03      0             -218252.68      465.05311    
    302600   343.82198     -218757.21      0             -218252.92      309.39514    
    302700   342.56361     -218753.64      0             -218251.2      -780.30353    
    302800   343.37132     -218746.32      0             -218242.69     -510.23576    
    302900   345.20511     -218745.28      0             -218238.96     -22.754824    
    303000   336.03109     -218739.33      0             -218246.47     -1286.9983    
    303100   338.81237     -218748.47      0             -218251.53     -838.87985    
    303200   339.64866     -218750.32      0             -218252.15     -1147.4201    
    303300   338.71188     -218748.45      0             -218251.66     -296.46017    
    303400   342.39026     -218749.2       0             -218247.01     -1165.9335    
    303500   343.7441      -218746.11      0             -218241.93     -924.63028    
    303600   346.56737     -218750.39      0             -218242.07     -1118.9206    
    303700   337.98835     -218748.25      0             -218252.52      89.994784    
    303800   339.66833     -218754.23      0             -218256.04     -86.392072    
    303900   340.14379     -218753.83      0             -218254.93     -642.32179    
    304000   340.70127     -218747.62      0             -218247.9      -174.75884    
    304100   341.72363     -218743.55      0             -218242.34     -851.58846    
    304200   339.67513     -218743.75      0             -218245.55     -1778.7685    
    304300   340.50087     -218748.24      0             -218248.82     -1233.355     
    304400   338.06389     -218746.22      0             -218250.37     -1223.258     
    304500   339.22128     -218748.63      0             -218251.09     -1267.6907    
    304600   343.02871     -218753.74      0             -218250.62     -1231.4622    
    304700   341.24349     -218748.95      0             -218248.45      147.07394    
    304800   345.75559     -218752.18      0             -218245.06     -774.54763    
    304900   339.6473      -218745.16      0             -218247        -520.74804    
    305000   338.32867     -218751.29      0             -218255.05     -1441.9719    
    305100   339.25377     -218754.73      0             -218257.14     -1304.7103    
    305200   337.85477     -218750.09      0             -218254.56     -122.06107    
    305300   345.36776     -218749.52      0             -218242.97      1150.4486    
    305400   344.36732     -218747.27      0             -218242.19     -721.18016    
    305500   338.71205     -218744.04      0             -218247.24     -1671.9653    
    305600   336.16447     -218745.87      0             -218252.81     -1571.9776    
    305700   338.50876     -218750.74      0             -218254.24     -875.38227    
    305800   339.71842     -218749.58      0             -218251.31     -1147.8367    
    305900   343.83691     -218743.75      0             -218239.44     -1508.4517    
    306000   342.10526     -218741.45      0             -218239.68     -268.25282    
    306100   340.94528     -218745.72      0             -218245.65     -2100.2104    
    306200   341.36659     -218751.57      0             -218250.89     -1142.6858    
    306300   337.14856     -218747.35      0             -218252.84      179.97825    
    306400   339.43058     -218750.27      0             -218252.42      260.10063    
    306500   342.81854     -218747.37      0             -218244.55      136.78474    
    306600   345.2784      -218745.56      0             -218239.13     -447.98852    
    306700   339.20237     -218742.62      0             -218245.11      184.18698    
    306800   341.42766     -218751.09      0             -218250.32     -241.47091    
    306900   338.4778      -218748.98      0             -218252.53      391.54504    
    307000   340.95852     -218752.4       0             -218252.31     -209.9371     
    307100   344.5068      -218752.28      0             -218246.99      251.87906    
    307200   344.91296     -218743.23      0             -218237.34      101.47728    
    307300   342.23765     -218742.33      0             -218240.37      119.25288    
    307400   342.13274     -218748.84      0             -218247.03      688.18237    
    307500   339.81044     -218749.1       0             -218250.7      -23.056287    
    307600   342.39886     -218755.61      0             -218253.41     -125.42607    
    307700   338.70502     -218752.08      0             -218255.29     -143.93967    
    307800   341.24752     -218754.6       0             -218254.08     -35.236616    
    307900   342.28941     -218749.85      0             -218247.81      269.66445    
    308000   342.7673      -218745.12      0             -218242.38      687.78159    
    308100   341.65961     -218745.59      0             -218244.47     -520.93247    
    308200   339.91443     -218752.44      0             -218253.88     -1071.2161    
    308300   338.75757     -218751.64      0             -218254.77     -545.14168    
    308400   338.37737     -218748.52      0             -218252.22     -509.82637    
    308500   340.72678     -218746.77      0             -218247.02      433.33956    
    308600   344.8626      -218748.44      0             -218242.63     -352.6093     
    308700   338.17683     -218745.92      0             -218249.92     -998.97518    
    308800   339.02767     -218754.69      0             -218257.43      1044.1166    
    308900   335.88541     -218750.26      0             -218257.61     -238.7712     
    309000   341.99176     -218752.91      0             -218251.31     -687.71488    
    309100   341.66152     -218746.21      0             -218245.09     -563.49591    
    309200   340.43579     -218745.69      0             -218246.37     -362.72966    
    309300   340.2494      -218749.18      0             -218250.13     -825.54699    
    309400   342.46206     -218755.48      0             -218253.18     -510.43106    
    309500   339.45682     -218751.23      0             -218253.34      346.46274    
    309600   342.83873     -218754.91      0             -218252.06     -60.344206    
    309700   342.22039     -218752.78      0             -218250.84      268.96257    
    309800   338.58794     -218747.14      0             -218250.53     -350.15875    
    309900   336.64992     -218744.3       0             -218250.53      154.53159    
    310000   341.68384     -218752.73      0             -218251.58      102.05549    
    310100   337.71355     -218747.63      0             -218252.3       823.07496    
    310200   340.07899     -218750.79      0             -218251.99     -110.50491    
    310300   342.1795      -218752.38      0             -218250.5       561.59302    
    310400   340.75102     -218747.33      0             -218247.54     -373.08622    
    310500   341.95082     -218745.16      0             -218243.61      413.21022    
    310600   342.40851     -218745.74      0             -218243.53      322.21693    
    310700   339.94889     -218751.35      0             -218252.75     -1101.7537    
    310800   338.20803     -218752.01      0             -218255.95      476.4354     
    310900   337.42999     -218748.55      0             -218253.64      48.888162    
    311000   342.0796      -218748.12      0             -218246.39      825.18896    
    311100   340.81189     -218743.71      0             -218243.84     -755.53352    
    311200   343.53036     -218749.56      0             -218245.7      -1360.4498    
    311300   343.16839     -218753.27      0             -218249.94      354.86115    
    311400   343.13401     -218757.27      0             -218253.99      255.88543    
    311500   338.50568     -218751.81      0             -218255.32      28.503568    
    311600   342.18908     -218749.61      0             -218247.72     -792.57288    
    311700   343.52147     -218745.35      0             -218241.5      -149.27596    
    311800   342.78042     -218747.43      0             -218244.67     -667.47494    
    311900   336.23624     -218745.56      0             -218252.4       486.39604    
    312000   338.04172     -218749.31      0             -218253.5      -180.60997    
    312100   337.1938      -218746.43      0             -218251.86      822.04948    
    312200   342.14669     -218749.43      0             -218247.6       949.06906    
    312300   342.9154      -218745.4       0             -218242.44     -120.8928     
    312400   346.77861     -218745.5       0             -218236.87     -1486.0682    
    312500   344.30271     -218748.22      0             -218243.23     -1018.3062    
    312600   338.81667     -218747.72      0             -218250.78     -1288.1798    
    312700   338.89291     -218749.75      0             -218252.69     -960.30448    
    312800   340.31984     -218752.83      0             -218253.68      400.69543    
    312900   339.63256     -218750.22      0             -218252.07      428.85005    
    313000   342.67021     -218748.78      0             -218246.18      647.42363    
    313100   345.91061     -218749.21      0             -218241.86      702.28567    
    313200   339.79585     -218743.79      0             -218245.41      35.678364    
    313300   339.00577     -218752.19      0             -218254.97     -383.18799    
    313400   340.36767     -218754.74      0             -218255.52     -590.5084     
    313500   338.8386      -218748.16      0             -218251.18     -1002.4618    
    313600   342.41302     -218747.96      0             -218245.74     -1254.896     
    313700   343.93219     -218748         0             -218243.55     -448.65185    
    313800   341.35795     -218753.16      0             -218252.49     -825.81153    
    313900   336.74583     -218752.38      0             -218258.47      219.62804    
    314000   337.86614     -218751.92      0             -218256.36     -119.60696    
    314100   340.3559      -218747.51      0             -218248.3      -470.39611    
    314200   342.35403     -218748.61      0             -218246.48     -469.87797    
    314300   340.57369     -218748.75      0             -218249.22      89.536052    
    314400   336.85567     -218751.84      0             -218257.76     -1213.3578    
    314500   334.1585      -218753.76      0             -218263.65     -708.02312    
    314600   334.05765     -218748.81      0             -218258.85     -79.637135    
    314700   336.67695     -218746.64      0             -218252.83     -20.695975    
    314800   342.78325     -218751.52      0             -218248.76     -1840.7227    
    314900   343.47192     -218750.01      0             -218246.24     -385.73506    
    315000   344.93046     -218751.35      0             -218245.44     -424.84939    
    315100   336.92638     -218745.61      0             -218251.43     -261.47417    
    315200   339.43224     -218755.14      0             -218257.29      33.566172    
    315300   340.00355     -218755.77      0             -218257.09     -168.78584    
    315400   340.026       -218747.97      0             -218249.25      497.57759    
    315500   342.12173     -218747.37      0             -218245.58     -232.2706     
    315600   343.53474     -218750.7       0             -218246.83     -50.783015    
    315700   337.93367     -218747.04      0             -218251.39     -437.4225     
    315800   340.11821     -218752.3       0             -218253.44      89.106633    
    315900   340.79751     -218753.73      0             -218253.87     -1965.0777    
    316000   340.03159     -218748.06      0             -218249.33     -478.20376    
    316100   342.80391     -218744.99      0             -218242.19     -204.99279    
    316200   344.50671     -218749.27      0             -218243.98     -1021.9659    
    316300   337.26583     -218747.14      0             -218252.47     -1103.8648    
    316400   335.12114     -218746.56      0             -218255.03     -1181.4773    
    316500   340.71302     -218752.21      0             -218252.48     -421.33726    
    316600   339.26836     -218745.37      0             -218247.76      158.97331    
    316700   346.37613     -218745.63      0             -218237.6      -67.749574    
    316800   347.71997     -218743.74      0             -218233.74      405.70952    
    316900   341.46222     -218740.99      0             -218240.17      402.52464    
    317000   340.89518     -218747.01      0             -218247.02     -861.06127    
    317100   338.17614     -218748.67      0             -218252.66     -815.00657    
    317200   338.59497     -218752.37      0             -218255.75     -1557.3405    
    317300   339.83191     -218752.79      0             -218254.36     -687.73079    
    317400   342.05791     -218746.64      0             -218244.93      84.612184    
    317500   339.14497     -218740.13      0             -218242.7      -780.88922    
    317600   339.89094     -218745.7       0             -218247.18      200.51952    
    317700   340.83168     -218751.69      0             -218251.79     -118.64909    
    317800   341.38003     -218752.32      0             -218251.61      157.48857    
    317900   341.95395     -218751.05      0             -218249.5      -767.86516    
    318000   339.75495     -218745.68      0             -218247.36      342.89378    
    318100   340.34329     -218743.53      0             -218244.35      330.10552    
    318200   339.63553     -218743.17      0             -218245.03     -1002.2808    
    318300   338.37152     -218748.8       0             -218252.5       321.91777    
    318400   339.50922     -218754.96      0             -218257         186.42337    
    318500   335.42168     -218747.11      0             -218255.15     -1044.6177    
    318600   341.2152      -218745.91      0             -218245.44      20.87035     
    318700   339.62385     -218741.95      0             -218243.82      188.64024    
    318800   338.03737     -218742.95      0             -218247.15     -938.10644    
    318900   336.63229     -218745.82      0             -218252.08     -447.7898     
    319000   342.17204     -218756.18      0             -218254.31     -880.2762     
    319100   339.15474     -218751.13      0             -218253.68     -65.917123    
    319200   338.59799     -218742.63      0             -218246        -227.29477    
    319300   340.02292     -218741.42      0             -218242.7      -405.93473    
    319400   339.98038     -218746.75      0             -218248.09      351.92369    
    319500   338.98008     -218752.2       0             -218255.01      863.59231    
    319600   340.35502     -218754.25      0             -218255.05      518.83125    
    319700   336.88013     -218746.95      0             -218252.84      1059.7645    
    319800   342.0063      -218750.23      0             -218248.6       312.7832     
    319900   339.031       -218742.99      0             -218245.73      64.159791    
    320000   342.94611     -218742.93      0             -218239.92     -1205.0412    
    320100   343.86208     -218746.3       0             -218241.95     -1000.6314    
    320200   340.69018     -218750.33      0             -218250.63     -1139.0555    
    320300   336.72386     -218748.59      0             -218254.71     -1241.3983    
    320400   335.15914     -218746.52      0             -218254.94     -516.75042    
    320500   340.83898     -218746.71      0             -218246.8      -693.57528    
    320600   342.68826     -218744.53      0             -218241.9      -212.96305    
    320700   341.51469     -218746.34      0             -218245.43      571.90665    
    320800   343.38018     -218753         0             -218249.36      694.13299    
    320900   339.87117     -218751.06      0             -218252.57     -487.75426    
    321000   339.99479     -218752.2       0             -218253.53      1000.1222    
    321100   335.62429     -218742.97      0             -218250.7       713.24188    
    321200   339.62086     -218747.82      0             -218249.7      -557.93607    
    321300   340.71043     -218749.18      0             -218249.46     -453.91921    
    321400   339.22949     -218748.16      0             -218250.6      -565.03346    
    321500   339.38033     -218750.58      0             -218252.8       82.522327    
    321600   339.70732     -218754.37      0             -218256.12     -1409.8786    
    321700   337.25507     -218751.16      0             -218256.5      -1707.2488    
    321800   340.52851     -218748.32      0             -218248.86     -1005.001     
    321900   344.66607     -218750.29      0             -218244.76      24.410518    
    322000   346.03645     -218754.58      0             -218247.04      836.14602    
    322100   340.15183     -218754.06      0             -218255.15     -347.30823    
    322200   337.94896     -218755.02      0             -218259.34      1047.9712    
    322300   337.33573     -218751.56      0             -218256.78      527.98588    
    322400   337.26488     -218748         0             -218253.33      107.88324    
    322500   342.25095     -218750.6       0             -218248.61      391.55386    
    322600   339.98082     -218742.8       0             -218244.14     -787.39991    
    322700   342.02575     -218746.93      0             -218245.28     -1339.7353    
    322800   338.36501     -218751.27      0             -218254.99      11.075859    
    322900   338.23785     -218753.71      0             -218257.61     -756.98182    
    323000   341.4001      -218753.9       0             -218253.16     -2151.6892    
    323100   341.81074     -218750.61      0             -218249.27     -696.35786    
    323200   341.91267     -218750.51      0             -218249.02     -1488.2112    
    323300   339.79803     -218747.78      0             -218249.39      71.446169    
    323400   339.94755     -218748.07      0             -218249.46     -38.420664    
    323500   340.37711     -218751.59      0             -218252.35     -506.91727    
    323600   335.28264     -218755.4       0             -218263.64      340.14592    
    323700   332.15155     -218752.01      0             -218264.84      960.63421    
    323800   338.07181     -218752.55      0             -218256.7       1326.4673    
    323900   341.32035     -218752.21      0             -218251.59      47.664207    
    324000   342.53201     -218750.06      0             -218247.66     -1250.1193    
    324100   341.84173     -218747.1       0             -218245.71     -1062.0552    
    324200   340.3124      -218745.64      0             -218246.5      -606.19062    
    324300   338.72687     -218751.56      0             -218254.75     -1168.1644    
    324400   340.28391     -218755.21      0             -218256.11     -1003.5576    
    324500   339.38976     -218748.12      0             -218250.33     -1199.4169    
    324600   342.81643     -218746.83      0             -218244.01     -594.90355    
    324700   339.20121     -218741.07      0             -218243.56     -1223.7578    
    324800   340.10387     -218748.66      0             -218249.83      446.10103    
    324900   339.92954     -218752.59      0             -218254.01      183.3382     
    325000   338.58734     -218749.39      0             -218252.78      862.78102    
    325100   337.98434     -218745.66      0             -218249.93      1041.621     
    325200   344.26891     -218751.99      0             -218247.04     -45.143696    
    325300   339.71765     -218746.01      0             -218247.74      40.217738    
    325400   340.62675     -218752.21      0             -218252.61     -549.74106    
    325500   336.07964     -218752.08      0             -218259.14     -598.33497    
    325600   340.48957     -218755.39      0             -218255.98     -413.20041    
    325700   337.66561     -218743.47      0             -218248.21     -619.28892    
    325800   339.15511     -218745.6       0             -218248.15      495.17147    
    325900   340.0981      -218749.55      0             -218250.73     -693.58772    
    326000   339.13748     -218750.13      0             -218252.71     -542.32035    
    326100   338.9513      -218752.44      0             -218255.3      -177.49524    
    326200   334.91551     -218749.5       0             -218258.28      1196.67      
    326300   339.1356      -218750.45      0             -218253.04      673.09018    
    326400   340.6142      -218745.63      0             -218246.05      230.16758    
    326500   342.0917      -218747.79      0             -218246.04      512.6777     
    326600   337.41341     -218745.62      0             -218250.73     -261.70989    
    326700   337.89778     -218752.34      0             -218256.74     -437.10426    
    326800   336.96352     -218757.41      0             -218263.18     -881.52409    
    326900   332.06352     -218758.31      0             -218271.26     -747.96854    
    327000   335.73105     -218754.74      0             -218262.32     -90.360144    
    327100   339.64997     -218751.86      0             -218253.69     -701.04256    
    327200   344.04331     -218751.79      0             -218247.17     -552.60082    
    327300   341.52548     -218747.13      0             -218246.21     -614.17063    
    327400   343.03437     -218753.39      0             -218250.26     -934.39369    
    327500   340.49547     -218757.11      0             -218257.7      -453.06445    
    327600   335.24731     -218753.55      0             -218261.84      236.43338    
    327700   340.27212     -218754.22      0             -218255.14     -1010.039     
    327800   340.86469     -218752.25      0             -218252.3      -514.05093    
    327900   341.63967     -218750.67      0             -218249.58     -799.58281    
    328000   344.67245     -218754.01      0             -218248.47     -499.96461    
    328100   341.64791     -218754         0             -218252.9      -531.09998    
    328200   335.2406      -218749.96      0             -218258.26     -1188.5808    
    328300   334.9964      -218753.28      0             -218261.94     -939.96541    
    328400   339.73646     -218750.99      0             -218252.69      152.02029    
    328500   344.64746     -218752.15      0             -218246.65     -1163.0636    
    328600   342.76521     -218749.63      0             -218246.89     -1185.6619    
    328700   340.3125      -218751.17      0             -218252.03      942.22633    
    328800   335.42174     -218750.65      0             -218258.68      439.94509    
    328900   337.03942     -218753.42      0             -218259.08     -205.16001    
    329000   342.89163     -218749.7       0             -218246.78      376.0519     
    329100   342.19117     -218746.63      0             -218244.73     -556.83948    
    329200   343.31231     -218752.04      0             -218248.5      -150.51019    
    329300   337.12057     -218749.17      0             -218254.71      121.02872    
    329400   337.08598     -218750.2       0             -218255.79      410.40334    
    329500   341.68527     -218750.02      0             -218248.86     -242.12907    
    329600   346.32178     -218748.79      0             -218240.83     -542.45176    
    329700   343.88218     -218748.06      0             -218243.68     -235.89951    
    329800   336.84085     -218745.32      0             -218251.27     -160.69418    
    329900   342.69399     -218756.7       0             -218254.06     -243.77812    
    330000   343.84169     -218757.18      0             -218252.86     -202.67509    
    330100   342.48106     -218750.14      0             -218247.82     -274.15958    
    330200   343.83639     -218743.49      0             -218239.18     -40.963374    
    330300   347.79322     -218744.71      0             -218234.6      -1455.0928    
    330400   338.86531     -218743.88      0             -218246.86     -934.50469    
    330500   337.87531     -218746.72      0             -218251.15      233.51437    
    330600   338.7899      -218751.6       0             -218254.7      -1005.236     
    330700   339.71691     -218754.14      0             -218255.87     -583.07122    
    330800   339.32251     -218748.28      0             -218250.59     -352.7112     
    330900   345.34286     -218750.75      0             -218244.23     -324.78719    
    331000   340.61084     -218744.32      0             -218244.74      373.87768    
    331100   343.0144      -218758.98      0             -218255.88      455.16431    
    331200   341.09664     -218757.88      0             -218257.59     -121.93369    
    331300   338.48305     -218750.35      0             -218253.89     -578.90578    
    331400   340.46292     -218747.77      0             -218248.4      -997.59787    
    331500   341.31569     -218745.57      0             -218244.95     -216.83145    
    331600   341.28803     -218748.06      0             -218247.49     -1184.9159    
    331700   335.21524     -218749.8       0             -218258.13     -814.16354    
    331800   338.84678     -218755.02      0             -218258.03     -1728.9056    
    331900   338.76256     -218748.22      0             -218251.35     -1509.2671    
    332000   337.75811     -218741.64      0             -218246.25     -691.46161    
    332100   339.12384     -218744.25      0             -218246.85     -1193.7376    
    332200   341.08663     -218750.45      0             -218250.18     -1450.1926    
    332300   339.36092     -218750.42      0             -218252.68      218.728      
    332400   340.23312     -218755.69      0             -218256.67     -708.57529    
    332500   336.00543     -218755.44      0             -218262.62     -794.95662    
    332600   339.63065     -218755.48      0             -218257.34      389.19285    
    332700   339.55751     -218747.65      0             -218249.62     -1090.6936    
    332800   340.83557     -218747.07      0             -218247.16     -1296.0141    
    332900   340.77458     -218747.6       0             -218247.78     -1993.6672    
    333000   341.15751     -218753.96      0             -218253.58     -2960.2652    
    333100   336.2125      -218754.23      0             -218261.1      -776.80654    
    333200   338.91081     -218753.47      0             -218256.39     -1510.7491    
    333300   343.61443     -218754.82      0             -218250.83     -966.73378    
    333400   337.77926     -218744.94      0             -218249.52     -481.05366    
    333500   343.38079     -218753.6       0             -218249.96     -265.36721    
    333600   341.2021      -218756.44      0             -218256         62.126455    
    333700   337.913       -218759.85      0             -218264.23     -502.52206    
    333800   336.93217     -218754.59      0             -218260.4      -1567.2345    
    333900   341.39502     -218752.18      0             -218251.45     -1317.6715    
    334000   338.64982     -218746.78      0             -218250.07     -691.45748    
    334100   339.96506     -218748.84      0             -218250.2      -298.71081    
    334200   339.43431     -218750.8       0             -218252.95      863.94558    
    334300   339.61309     -218754.24      0             -218256.13     -661.01452    
    334400   336.47406     -218750.54      0             -218257.02     -813.499      
    334500   340.49273     -218749.14      0             -218249.73     -461.10486    
    334600   342.56391     -218747.16      0             -218244.71     -838.63457    
    334700   340.30506     -218746.66      0             -218247.53     -580.45821    
    334800   341.36098     -218755.77      0             -218255.09     -398.38225    
    334900   338.67779     -218754.14      0             -218257.4      -739.87183    
    335000   338.68969     -218752.9       0             -218256.14      185.12328    
    335100   338.96024     -218748.69      0             -218251.53     -223.54348    
    335200   345.16735     -218753.34      0             -218247.08     -984.03791    
    335300   340.52693     -218746.25      0             -218246.79     -843.43057    
    335400   339.49025     -218756.11      0             -218258.17     -661.48732    
    335500   336.11153     -218753.81      0             -218260.83     -509.14989    
    335600   338.998       -218751.54      0             -218254.33     -137.09601    
    335700   341.14647     -218749.09      0             -218248.72     -736.90026    
    335800   342.01863     -218748.79      0             -218247.14     -824.30427    
    335900   338.52232     -218747.58      0             -218251.07     -1126.1583    
    336000   335.09623     -218754         0             -218262.51     -1713.8474    
    336100   339.01936     -218760.24      0             -218262.99     -48.155544    
    336200   336.4377      -218750.45      0             -218256.99     -189.96919    
    336300   338.75506     -218748.41      0             -218251.56      79.983465    
    336400   341.19944     -218748.42      0             -218247.98      237.21278    
    336500   336.9273      -218742.28      0             -218248.1       912.14047    
    336600   337.65176     -218748.96      0             -218253.72      437.90188    
    336700   335.69723     -218753.21      0             -218260.83      354.89637    
    336800   339.72714     -218756.9       0             -218258.62     -53.866016    
    336900   343.91479     -218754.85      0             -218250.42     -1226.5675    
    337000   342.37657     -218749.94      0             -218247.78     -969.14493    
    337100   342.6443      -218751.56      0             -218249        -1763.0278    
    337200   335.61173     -218746.85      0             -218254.61     -267.67543    
    337300   339.57016     -218755.1       0             -218257.05     -359.24673    
    337400   339.302       -218751.7       0             -218254.04      1020.5189    
    337500   343.02801     -218749.12      0             -218246        -275.14204    
    337600   342.64462     -218746.25      0             -218243.69     -45.75755     
    337700   342.67586     -218753.32      0             -218250.71     -600.08005    
    337800   334.22025     -218746.25      0             -218256.04      128.95002    
    337900   337.7688      -218750.43      0             -218255.02     -822.98368    
    338000   342.02965     -218752.15      0             -218250.49     -866.32609    
    338100   341.73682     -218750.51      0             -218249.28     -550.3246     
    338200   338.5747      -218746.7       0             -218250.11     -560.54591    
    338300   340.3396      -218750.48      0             -218251.3      -1626.7866    
    338400   343.62004     -218756.49      0             -218252.5      -366.04258    
    338500   339.96158     -218751.96      0             -218253.34     -949.86299    
    338600   341.91694     -218753.91      0             -218252.42      53.263952    
    338700   337.35899     -218744         0             -218249.19     -1506.3971    
    338800   345.40935     -218750.73      0             -218244.12     -279.49246    
    338900   341.66644     -218747.34      0             -218246.21     -230.9907     
    339000   337.0154      -218750.03      0             -218255.72     -412.29116    
    339100   338.77594     -218753.82      0             -218256.93      355.17691    
    339200   337.76397     -218749.6       0             -218254.2       442.24982    
    339300   339.29909     -218747.01      0             -218249.35     -434.76565    
    339400   341.83507     -218747.82      0             -218246.45     -450.68405    
    339500   343.55343     -218748.44      0             -218244.55      615.9526     
    339600   341.55558     -218750.55      0             -218249.59     -1022.8912    
    339700   341.40174     -218757.05      0             -218256.31     -706.27494    
    339800   336.76511     -218752.21      0             -218258.27     -462.45078    
    339900   340.23566     -218752.84      0             -218253.81     -999.90442    
    340000   343.386       -218749.52      0             -218245.87     -413.717      
    340100   339.47206     -218743.28      0             -218245.38     -1329.7753    
    340200   342.20512     -218750.39      0             -218248.48     -443.67433    
    340300   339.71826     -218750.01      0             -218251.74      279.3901     
    340400   337.77141     -218747.88      0             -218252.47      968.91571    
    340500   342.25183     -218754.03      0             -218252.05      21.748887    
    340600   341.61217     -218750.91      0             -218249.86     -1086.8297    
    340700   343.94827     -218747.08      0             -218242.6      -1012.2739    
    340800   342.5459      -218739.45      0             -218237.04      983.99475    
    340900   341.51582     -218745.61      0             -218244.7      -1073.8985    
    341000   341.52362     -218751.98      0             -218251.06     -890.19103    
    341100   340.20033     -218752.9       0             -218253.92     -274.72707    
    341200   338.05383     -218749.76      0             -218253.93     -1300.099     
    341300   340.50168     -218749.39      0             -218249.98     -1451.3566    
    341400   342.96209     -218745.67      0             -218242.64     -247.81713    
    341500   344.58671     -218748.45      0             -218243.03      823.48647    
    341600   338.87658     -218750.49      0             -218253.46     -191.00993    
    341700   339.79648     -218754.32      0             -218255.94     -655.34015    
    341800   344.23814     -218757.74      0             -218252.84     -856.46226    
    341900   345.28428     -218755.04      0             -218248.61     -1114.5859    
    342000   339.24222     -218740.75      0             -218243.18     -983.67443    
    342100   346.28248     -218746.74      0             -218238.84     -156.37523    
    342200   341.6924      -218748.44      0             -218247.27     -747.73813    
    342300   340.26725     -218752.76      0             -218253.69     -743.29973    
    342400   342.72754     -218758.27      0             -218255.59     -1609.1068    
    342500   341.51592     -218754.89      0             -218253.99     -1589.2224    
    342600   345.50044     -218752.85      0             -218246.1      -1329.1965    
    342700   342.78484     -218744.36      0             -218241.6      -760.8004     
    342800   342.97759     -218749.02      0             -218245.97     -1573.9411    
    342900   340.69612     -218750         0             -218250.3      -1164.059     
    343000   340.48392     -218750.57      0             -218251.18     -1064.7121    
    343100   340.53727     -218751.57      0             -218252.1      -803.6464     
    343200   339.17676     -218749.85      0             -218252.38     -543.09527    
    343300   339.67819     -218749.95      0             -218251.74      278.35199    
    343400   343.2758      -218752.23      0             -218248.74     -475.21501    
    343500   340.73634     -218745.28      0             -218245.52     -282.5326     
    343600   340.44217     -218746.37      0             -218247.04     -553.63075    
    343700   340.03476     -218753.4       0             -218254.67     -279.79493    
    343800   335.96281     -218751.89      0             -218259.13     -222.09349    
    343900   339.1868      -218753.81      0             -218256.32     -1347.218     
    344000   340.40698     -218748.2       0             -218248.92     -773.01325    
    344100   340.31787     -218747.03      0             -218247.89     -1709.0894    
    344200   345.22516     -218755.81      0             -218249.46     -539.19542    
    344300   337.57227     -218749.35      0             -218254.23     -567.59069    
    344400   338.5313      -218754.24      0             -218257.71     -149.70342    
    344500   335.86089     -218749.16      0             -218256.54     -750.65294    
    344600   339.6088      -218746.23      0             -218248.12     -544.26118    
    344700   344.92346     -218750.29      0             -218244.39      23.182187    
    344800   341.08891     -218749.31      0             -218249.03      942.38812    
    344900   337.73147     -218751.11      0             -218255.76      84.739211    
    345000   334.47275     -218747.35      0             -218256.78      246.25034    
    345100   337.17182     -218749         0             -218254.46      79.026349    
    345200   339.81177     -218750.12      0             -218251.71      685.71623    
    345300   343.24569     -218751.96      0             -218248.52     -920.49546    
    345400   341.54019     -218743.71      0             -218242.76     -558.75652    
    345500   347.16904     -218746.06      0             -218236.86     -599.38662    
    345600   345.09849     -218750.21      0             -218244.05      135.70745    
    345700   339.82306     -218750.58      0             -218252.15     -586.37972    
    345800   338.81715     -218751.32      0             -218254.37     -677.81741    
    345900   340.52513     -218752.5       0             -218253.05      100.12697    
    346000   337.8093      -218744.49      0             -218249.02      82.283819    
    346100   346.00509     -218750.68      0             -218243.19     -264.04321    
    346200   341.35386     -218746.22      0             -218245.55     -950.80591    
    346300   335.88026     -218749.06      0             -218256.42     -77.68089     
    346400   338.75511     -218754.7       0             -218257.84     -271.46297    
    346500   334.60434     -218743.98      0             -218253.21     -475.47363    
    346600   342.8882      -218750.25      0             -218247.33     -929.03707    
    346700   338.39996     -218745.21      0             -218248.87     -1863.3326    
    346800   338.56302     -218747.08      0             -218250.5      -550.085      
    346900   338.16831     -218747.35      0             -218251.35     -1.0404303    
    347000   339.61544     -218749.15      0             -218251.04     -359.92297    
    347100   341.92933     -218750.97      0             -218249.46      205.93039    
    347200   342.46657     -218749.98      0             -218247.68     -326.47588    
    347300   340.0036      -218746.4       0             -218247.71      694.14722    
    347400   337.92061     -218747.85      0             -218252.21      432.37645    
    347500   338.60167     -218753.71      0             -218257.08     -106.23686    
    347600   336.05544     -218750.63      0             -218257.74      262.47913    
    347700   340.62545     -218748.52      0             -218248.92     -517.40227    
    347800   342.79858     -218746.08      0             -218243.29      0.29668887   
    347900   339.98348     -218744.35      0             -218245.69     -190.78363    
    348000   342.82857     -218754.61      0             -218251.77      1343.3842    
    348100   339.24671     -218751.69      0             -218254.11     -606.31839    
    348200   338.47182     -218750.29      0             -218253.85     -1776.5034    
    348300   339.50563     -218749.48      0             -218251.52     -1069.7452    
    348400   338.96404     -218744.68      0             -218247.52     -534.67607    
    348500   344.52261     -218741.98      0             -218236.66     -1050.8158    
    348600   344.44199     -218743.33      0             -218238.13      1309.2605    
    348700   338.63513     -218743.37      0             -218246.69     -1086.2866    
    348800   339.94129     -218749.53      0             -218250.93     -352.97428    
    348900   338.81007     -218752.25      0             -218255.31      1087.8256    
    349000   338.28959     -218752.23      0             -218256.06     -214.64572    
    349100   342.72143     -218752.02      0             -218249.35     -22.752839    
    349200   343.92705     -218746.7       0             -218242.26     -15.356988    
    349300   337.64965     -218740.61      0             -218245.38     -78.204315    
    349400   343.63228     -218755         0             -218250.99      78.68144     
    349500   338.60164     -218749.57      0             -218252.94     -1024.5654    
    349600   340.10538     -218751.15      0             -218252.31     -1604.3022    
    349700   341.20962     -218751.58      0             -218251.12     -1395.9077    
    349800   341.48805     -218745.99      0             -218245.13     -868.17682    
    349900   343.59607     -218744.48      0             -218240.52     -1241.2981    
    350000   343.9532      -218749.5       0             -218245.02      194.20556    
    350100   338.1245      -218750.55      0             -218254.62     -1442.0354    
    350200   337.70692     -218751         0             -218255.68     -226.93283    
    350300   338.73376     -218748.95      0             -218252.13      1221.0253    
    350400   344.01941     -218752.41      0             -218247.83      156.15498    
    350500   344.46243     -218748.95      0             -218243.73      545.13903    
    350600   345.11543     -218746.83      0             -218240.64     -91.033708    
    350700   341.83402     -218750         0             -218248.63      282.40177    
    350800   337.80605     -218750.02      0             -218254.55     -29.208735    
    350900   339.49684     -218751.72      0             -218253.78     -480.49765    
    351000   341.65366     -218750.08      0             -218248.97     -1404.8415    
    351100   341.79109     -218743.26      0             -218241.95     -1713.4964    
    351200   341.48552     -218744.9       0             -218244.04     -153.41648    
    351300   338.28717     -218752.37      0             -218256.2      -1000.1247    
    351400   334.72804     -218747.53      0             -218256.58     -415.6508     
    351500   340.44675     -218750.71      0             -218251.38     -106.73672    
    351600   342.84655     -218748.68      0             -218245.82     -273.14784    
    351700   343.64983     -218748.79      0             -218244.76      270.11189    
    351800   334.40983     -218746.61      0             -218256.12      306.68581    
    351900   334.58428     -218749.94      0             -218259.2       394.48478    
    352000   339.3392      -218752.44      0             -218254.72     -146.03107    
    352100   343.44244     -218753.57      0             -218249.84      361.98158    
    352200   345.25326     -218751.9       0             -218245.52     -339.85274    
    352300   342.13076     -218745.18      0             -218243.37     -890.45494    
    352400   340.06526     -218745.63      0             -218246.86     -1747.7099    
    352500   340.94479     -218753.87      0             -218253.8      -1788.9888    
    352600   339.33867     -218754.74      0             -218257.02     -1057.6569    
    352700   340.48969     -218753.67      0             -218254.26      235.78449    
    352800   336.15505     -218737.87      0             -218244.83     -1211.7784    
    352900   340.68443     -218742.35      0             -218242.66     -761.47791    
    353000   344.59659     -218751.99      0             -218246.57     -580.20103    
    353100   339.49537     -218750.01      0             -218252.07     -672.31498    
    353200   340.09549     -218752.23      0             -218253.41     -728.83154    
    353300   340.70058     -218753.39      0             -218253.68      44.976286    
    353400   340.23204     -218751.14      0             -218252.12     -714.98404    
    353500   339.82785     -218741.14      0             -218242.71     -1139.746     
    353600   345.62384     -218746.34      0             -218239.41     -959.06348    
    353700   341.85059     -218748.79      0             -218247.4      -144.32713    
    353800   340.01741     -218750.42      0             -218251.71     -363.81392    
    353900   338.75878     -218750.07      0             -218253.21     -984.21517    
    354000   340.93601     -218752.43      0             -218252.37     -1573.8029    
    354100   342.73949     -218749.74      0             -218247.04     -2265.5797    
    354200   344.84707     -218747.12      0             -218241.32     -863.76712    
    354300   347.27258     -218751.55      0             -218242.2      -1610.4549    
    354400   341.06772     -218753.32      0             -218253.07     -389.08891    
    354500   340.13864     -218753.98      0             -218255.09      338.48956    
    354600   340.97794     -218754.12      0             -218254         190.8216     
    354700   344.08682     -218753.52      0             -218248.85     -305.05166    
    354800   344.37716     -218745.8       0             -218240.7      -962.73837    
    354900   343.36515     -218744.15      0             -218240.53     -887.37243    
    355000   342.24417     -218752.71      0             -218250.73     -1900.9972    
    355100   341.51626     -218753.25      0             -218252.34     -1035.3209    
    355200   338.37135     -218747.98      0             -218251.68     -1008.4119    
    355300   339.77468     -218746.87      0             -218248.52     -1718.9752    
    355400   344.19185     -218752.28      0             -218247.44     -1215.3134    
    355500   342.40557     -218751.59      0             -218249.38     -1864.2459    
    355600   339.11439     -218753.78      0             -218256.4      -972.44644    
    355700   338.02609     -218753.89      0             -218258.1      -402.26753    
    355800   340.83417     -218751.29      0             -218251.38     -1143.6708    
    355900   341.94608     -218745.62      0             -218244.08     -640.0463     
    356000   342.56307     -218748.32      0             -218245.88     -1127.3016    
    356100   341.90537     -218752.5       0             -218251.02     -486.01128    
    356200   340.86282     -218754.28      0             -218254.33     -1373.1617    
    356300   337.23266     -218748.58      0             -218253.96     -1268.5084    
    356400   341.88757     -218753.71      0             -218252.26     -18.716837    
    356500   337.52966     -218747.24      0             -218252.18      159.95187    
    356600   341.59869     -218750.18      0             -218249.15      294.66861    
    356700   343.74454     -218744.85      0             -218240.68      358.08666    
    356800   345.33847     -218743.42      0             -218236.9      -869.31444    
    356900   341.81252     -218747.8       0             -218246.46     -1606.7165    
    357000   338.92675     -218748.96      0             -218251.85     -1192.5021    
    357100   336.34332     -218747.38      0             -218254.06     -1406.5891    
    357200   340.58651     -218753.23      0             -218253.69     -981.52552    
    357300   342.84302     -218752.2       0             -218249.35      264.37292    
    357400   340.99581     -218744.25      0             -218244.11      299.0494     
    357500   348.26557     -218752.4       0             -218241.6      -1401.0334    
    357600   338.56819     -218747.35      0             -218250.77     -274.4392     
    357700   341.99123     -218757.67      0             -218256.07     -692.7691     
    357800   340.02245     -218753.86      0             -218255.15     -3.9432984    
    357900   339.41043     -218748.91      0             -218251.09     -805.17778    
    358000   341.43354     -218743.55      0             -218242.76     -720.24975    
    358100   338.95706     -218739.51      0             -218242.36     -149.2584     
    358200   336.61732     -218747.75      0             -218254.02     -650.66317    
    358300   336.04263     -218749.04      0             -218256.16      488.01729    
    358400   342.8683      -218755.37      0             -218252.48     -160.68195    
    358500   341.2422      -218748.88      0             -218248.37     -318.08762    
    358600   344.146       -218748.2       0             -218243.44     -146.33627    
    358700   342.61253     -218743.79      0             -218241.27      471.44451    
    358800   337.92868     -218745.78      0             -218250.13     -643.64732    
    358900   338.69508     -218753.35      0             -218256.58      578.44794    
    359000   339.55916     -218754.54      0             -218256.51     -167.95576    
    359100   341.45541     -218751.87      0             -218251.05     -600.31125    
    359200   344.37584     -218748.15      0             -218243.05      955.42524    
    359300   341.80174     -218745.67      0             -218244.34      450.22681    
    359400   340.41866     -218746.99      0             -218247.69     -1269.9679    
    359500   339.43538     -218748.91      0             -218251.06     -213.16025    
    359600   340.3958      -218752.36      0             -218253.1      -284.52555    
    359700   337.811       -218750.78      0             -218255.3      -2184.4567    
    359800   341.41901     -218758.32      0             -218257.56     -1609.267     
    359900   341.46306     -218755.75      0             -218254.92      380.05394    
    360000   340.17819     -218746.69      0             -218247.74     -169.60681    
    360100   341.658       -218745.8       0             -218244.69      868.6297     
    360200   340.73309     -218747.83      0             -218248.07     -190.67244    
    360300   336.65025     -218752.17      0             -218258.4      -337.29578    
    360400   335.00963     -218749.53      0             -218258.17     -176.24148    
    360500   340.51968     -218751.87      0             -218252.43     -167.04317    
    360600   341.37988     -218750.21      0             -218249.5      -444.55963    
    360700   342.38225     -218750.17      0             -218247.99     -1088.1358    
    360800   342.66367     -218750.15      0             -218247.56     -1100.8924    
    360900   338.61637     -218747.49      0             -218250.84     -1077.5322    
    361000   338.56642     -218753.11      0             -218256.53      47.450713    
    361100   341.8576      -218759.79      0             -218258.39     -1168.1516    
    361200   336.83483     -218746.12      0             -218252.08     -1114.6703    
    361300   343.15821     -218748.05      0             -218244.74     -508.90197    
    361400   340.46277     -218746.33      0             -218246.97     -1624.3268    
    361500   339.64122     -218749.29      0             -218251.14     -672.70512    
    361600   337.75748     -218750.08      0             -218254.68     -965.2995     
    361700   338.89871     -218752.8       0             -218255.74     -806.55853    
    361800   340.98605     -218754.28      0             -218254.15     -860.57969    
    361900   340.07731     -218751.58      0             -218252.79     -846.48843    
    362000   340.25777     -218749.53      0             -218250.46     -798.80425    
    362100   342.4667      -218751.64      0             -218249.34      508.25453    
    362200   340.55953     -218748.69      0             -218249.19      94.529858    
    362300   338.06044     -218747.89      0             -218252.05     -401.67718    
    362400   336.85281     -218751.85      0             -218257.78     -1299.5453    
    362500   340.22019     -218757.79      0             -218258.79     -360.03573    
    362600   340.68224     -218751.73      0             -218252.05      103.52079    
    362700   339.35141     -218742.5       0             -218244.77     -656.32061    
    362800   342.0324      -218747.65      0             -218245.98     -946.52842    
    362900   339.87362     -218750.3       0             -218251.8      -372.64756    
    363000   339.47833     -218752.89      0             -218254.97     -940.99578    
    363100   340.83561     -218754.35      0             -218254.44     -299.80883    
    363200   341.99666     -218754.5       0             -218252.88     -337.42006    
    363300   343.10244     -218753.67      0             -218250.44     -629.71291    
    363400   343.34559     -218751.71      0             -218248.12     -264.93765    
    363500   339.38578     -218742.49      0             -218244.71     -832.9113     
    363600   341.47069     -218745.8       0             -218244.96      276.83682    
    363700   340.41685     -218751.18      0             -218251.89     -261.51512    
    363800   339.16833     -218754.63      0             -218257.16      406.9105     
    363900   336.79144     -218750.07      0             -218256.09      796.4868     
    364000   343.30593     -218750.19      0             -218246.66      341.33245    
    364100   343.56454     -218747.54      0             -218243.63     -594.15498    
    364200   344.3711      -218752.69      0             -218247.59     -202.04585    
    364300   342.80555     -218755.35      0             -218252.55     -373.41389    
    364400   339.21494     -218752.65      0             -218255.12     -148.1588     
    364500   338.11181     -218750.77      0             -218254.85     -381.13762    
    364600   341.1228      -218750         0             -218249.67     -850.227      
    364700   340.19145     -218742.77      0             -218243.81     -1215.2693    
    364800   341.62286     -218746.26      0             -218245.2      -1627.2668    
    364900   338.69756     -218750.72      0             -218253.95     -964.98231    
    365000   339.14336     -218753.14      0             -218255.71     -643.34773    
    365100   340.23923     -218752.75      0             -218253.71     -1184.9806    
    365200   338.97146     -218748.83      0             -218251.66     -891.9613     
    365300   342.75056     -218746.36      0             -218243.64      123.33196    
    365400   343.08825     -218741.2       0             -218237.98     -238.63317    
    365500   342.39597     -218746.57      0             -218244.37      619.32119    
    365600   342.34819     -218752.67      0             -218250.54      372.37805    
    365700   338.45403     -218750.36      0             -218253.94     -226.36757    
    365800   337.74081     -218749         0             -218253.63     -529.67735    
    365900   343.04855     -218753.28      0             -218250.13     -545.14496    
    366000   340.72732     -218741.61      0             -218241.86     -508.17568    
    366100   339.09055     -218738         0             -218240.66     -1300.1037    
    366200   337.97654     -218745.64      0             -218249.93      97.531793    
    366300   339.51028     -218752.41      0             -218254.44     -626.49393    
    366400   339.09751     -218750         0             -218252.64      735.60107    
    366500   341.89272     -218750.08      0             -218248.62     -148.27388    
    366600   344.3622      -218750.21      0             -218245.13     -828.11999    
    366700   339.09506     -218746.14      0             -218248.78     -826.26994    
    366800   339.55723     -218755.12      0             -218257.09     -236.34072    
    366900   335.74814     -218751.22      0             -218258.78     -134.5561     
    367000   341.22198     -218752         0             -218251.53      217.19301    
    367100   339.74193     -218746.25      0             -218247.94     -116.60533    
    367200   341.1562      -218748.61      0             -218248.23     -2045.502     
    367300   341.24991     -218749.92      0             -218249.4      -878.07508    
    367400   341.53221     -218752.78      0             -218251.85     -1289.3054    
    367500   336.65917     -218747.6       0             -218253.82     -2158.0333    
    367600   337.39502     -218746.3       0             -218251.44     -1387.1332    
    367700   340.21125     -218743.89      0             -218244.89     -117.66434    
    367800   342.48098     -218745.49      0             -218243.16      165.83619    
    367900   341.82479     -218751.96      0             -218250.6      -46.470065    
    368000   340.49259     -218755.66      0             -218256.25      9.6176603    
    368006   337.51017     -218751.3       0             -218256.27     -836.19281    
Loop time of 3316.23 on 8 procs for 345000 steps with 11348 atoms

Performance: 8.989 ns/day, 2.670 hours/ns, 104.034 timesteps/s
96.5% CPU use with 8 MPI tasks x 1 OpenMP threads

MPI task timing breakdown:
Section |  min time  |  avg time  |  max time  |%varavg| %total
---------------------------------------------------------------
Pair    | 1036.2     | 1077.1     | 1114.7     |  78.4 | 32.48
Kspace  | 1901       | 1941       | 1983       |  60.4 | 58.53
Neigh   | 131.86     | 136.14     | 140.21     |  23.4 |  4.11
Comm    | 101.6      | 106.6      | 109.9      |  26.9 |  3.21
Output  | 11.359     | 11.702     | 11.755     |   3.8 |  0.35
Modify  | 31.778     | 32.223     | 32.814     |   5.5 |  0.97
Other   |            | 11.42      |            |       |  0.34

Nlocal:         1418.5 ave        1443 max        1401 min
Histogram: 2 1 0 2 1 0 0 0 0 2
Nghost:        3922.25 ave        3941 max        3899 min
Histogram: 2 1 0 1 0 0 0 0 0 4
Neighs:         105334 ave      110250 max      102771 min
Histogram: 1 2 2 1 0 1 0 0 0 1

Total # of neighbors = 842676
Ave neighs/atom = 74.257667
Neighbor list builds = 53683
Dangerous builds = 0

undump              1
unfix               1
unfix               RDF
uncompute           myRDF

print "Temp = ${Tmp}"
Temp = 340

variable Tmp delete
next a
jump SELF loop_start
print "loop body"
loop body
variable Tmp equal (${a}-1)*5+300
variable Tmp equal (10-1)*5+300

reset_timestep 0

velocity	all create 0.00001 87287

pair_style buck/coul/long 8.0
pair_coeff 1 1 0.0        1.0      0.0
pair_coeff 2 2 2029.2204  0.343645 192.58000
pair_coeff 3 3 0.0        1.0      0.0
pair_coeff 4 4 0.0        1.0      0.0
pair_coeff 1 2 41051.9380 0.151160 0.0000
pair_coeff 1 3 0.0        1.0      0.0
pair_coeff 1 4 0.0        1.0      0.0
pair_coeff 2 3 26655.4720 0.181968 86.5860
pair_coeff 2 4 17943.3840 0.226627 127.6500
pair_coeff 3 4 0.0        1.0      0.0
kspace_style pppm 1.0e-4

neighbor	0.3 bin
neigh_modify	every 1 delay 0 check yes

log log.lammps00_${Tmp}
log log.lammps00_345
