
timestep 0.001

min_style cg
minimize 1.0e-4 1.0e-6 1000 10000
PPPM initialization ...
WARNING: System is not charge neutral, net charge = -578.4 (src/kspace.cpp:327)
  using 12-bit tables for long-range coulomb (src/kspace.cpp:342)
  G vector (1/distance) = 0.36916879
  grid = 54 48 64
  stencil order = 5
  estimated absolute RMS force accuracy = 0.0017717501
  estimated relative force accuracy = 0.00012304124
  using double precision FFTW3
  3d grid and FFT values/proc = 34336 20736
Generated 0 of 6 mixed pair_coeff terms from geometric mixing rule
Neighbor list info ...
  update every 1 steps, delay 0 steps, check yes
  max neighbors/atom: 2000, page size: 100000
  master list distance cutoff = 8.3
  ghost atom cutoff = 8.3
  binsize = 4.15, bins = 14 12 18
  1 neighbor lists, perpetual/occasional/extra = 1 0 0
  (1) pair buck/coul/long, perpetual
      attributes: half, newton on
      pair build: half/bin/atomonly/newton
      stencil: half/bin/3d
      bin: standard
Per MPI rank memory allocation (min/avg/max) = 8.306 | 8.306 | 8.307 Mbytes
   Step          Temp          E_pair         E_mol          TotEng         Press     
         0   1e-05         -218754.16      0             -218754.16     -3200.8316    
         5   1e-05         -219156.35      0             -219156.35     -4658.7523    
Loop time of 0.120768 on 8 procs for 5 steps with 11348 atoms

98.0% CPU use with 8 MPI tasks x 1 OpenMP threads

Minimization stats:
  Stopping criterion = energy tolerance
  Energy initial, next-to-last, final = 
     -218754.159948926  -219135.112323571  -219156.349195618
  Force two-norm initial, final = 193.56481 34.737857
  Force max component initial, final = 6.5619499 1.2550196
  Final line search alpha, max atom move = 0.051130166 0.064169359
  Iterations, force evaluations = 5 10

MPI task timing breakdown:
Section |  min time  |  avg time  |  max time  |%varavg| %total
---------------------------------------------------------------
Pair    | 0.038051   | 0.044456   | 0.050036   |   1.7 | 36.81
Kspace  | 0.061925   | 0.068133   | 0.075117   |   1.5 | 56.42
Neigh   | 0.0044059  | 0.0049717  | 0.0056084  |   0.5 |  4.12
Comm    | 0.0018878  | 0.0020042  | 0.0021025  |   0.2 |  1.66
Output  | 0          | 0          | 0          |   0.0 |  0.00
Modify  | 0          | 0          | 0          |   0.0 |  0.00
Other   |            | 0.001204   |            |       |  1.00

Nlocal:         1418.5 ave        1436 max        1400 min
Histogram: 2 0 0 0 1 2 1 0 1 1
Nghost:        3914.38 ave        3927 max        3902 min
Histogram: 2 0 1 0 1 0 1 1 1 1
Neighs:         105202 ave      108836 max      102582 min
Histogram: 2 0 0 1 2 2 0 0 0 1

Total # of neighbors = 841613
Ave neighs/atom = 74.163994
Neighbor list builds = 2
Dangerous builds = 0

fix                 1 all npt temp ${Tmp} ${Tmp} 0.1 iso 1.0 1.0 1.0
fix                 1 all npt temp 335 ${Tmp} 0.1 iso 1.0 1.0 1.0
fix                 1 all npt temp 335 335 0.1 iso 1.0 1.0 1.0
dump                1 all atom 100 dump00_${Tmp}.adp
dump                1 all atom 100 dump00_335.adp
thermo              100
run                 23000
PPPM initialization ...
  using 12-bit tables for long-range coulomb (src/kspace.cpp:342)
  G vector (1/distance) = 0.36916879
  grid = 54 48 64
  stencil order = 5
  estimated absolute RMS force accuracy = 0.0017717501
  estimated relative force accuracy = 0.00012304124
  using double precision FFTW3
  3d grid and FFT values/proc = 34336 20736
Generated 0 of 6 mixed pair_coeff terms from geometric mixing rule
Per MPI rank memory allocation (min/avg/max) = 7.181 | 7.181 | 7.182 Mbytes
   Step          Temp          E_pair         E_mol          TotEng         Press          Volume    
         5   1e-05         -219156.35      0             -219156.35     -4658.7523      189898.33    
       100   36.766953     -219206.19      0             -219152.26      1435.9764      188621.1     
       200   39.968435     -219195.5       0             -219136.87     -522.59531      188762.3     
       300   44.352182     -219184.59      0             -219119.54      318.39033      188414.51    
       400   53.098908     -219174.49      0             -219096.61     -153.04242      188511.43    
       500   62.217141     -219159.16      0             -219067.9      -61.632804      188640.03    
       600   74.100651     -219142.97      0             -219034.29     -1.9133932      188594       
       700   86.39661      -219120.6       0             -218993.88      663.94611      188556.69    
       800   104.99536     -219098.42      0             -218944.42     -489.41526      188755.66    
       900   124.28696     -219069.66      0             -218887.37     -239.45373      188567.58    
      1000   145.6242      -219034.33      0             -218820.74      354.94659      188516.54    
      1100   172.48117     -218995.3       0             -218742.32     -635.84019      188980.07    
      1200   200.21608     -218950.48      0             -218656.82      876.08508      188662.59    
      1300   231.94549     -218901.8       0             -218561.6      -474.2246       189159.94    
      1400   264.65608     -218850.74      0             -218462.56     -531.89099      189390.77    
      1500   295.37646     -218799.48      0             -218366.25     -290.09298      189273.37    
      1600   325.33816     -218755.96      0             -218278.79     -197.51824      189458.51    
      1700   346.5978      -218721.78      0             -218213.42     -1398.8664      190235.82    
      1800   352.21082     -218712.55      0             -218195.95      313.9079       190101.81    
      1900   339.39194     -218725.99      0             -218228.2      -563.66326      190070.21    
      2000   330.52557     -218753.27      0             -218268.48     -816.22906      190190.01    
      2100   323.95079     -218762.82      0             -218287.68     -895.81989      190128.14    
      2200   324.72883     -218753.9       0             -218277.61     -451.64699      189792.31    
      2300   339.34853     -218742.55      0             -218244.83      409.1501       189483.61    
      2400   348.65826     -218731.58      0             -218220.2      -908.12173      189119.33    
      2500   344.91147     -218730.37      0             -218224.48     -982.44531      189293.97    
      2600   331.27484     -218741.13      0             -218255.24      1148.3178      189092.32    
      2700   324.47051     -218757.13      0             -218281.22     -229.05444      189258.88    
      2800   325.47929     -218760.11      0             -218282.72     -206.62563      189055.81    
      2900   338.89294     -218755.04      0             -218257.98      64.076264      189039.67    
      3000   341.73314     -218735.82      0             -218234.6       89.821701      189362.37    
      3100   344.95058     -218735.4       0             -218229.46      180.77026      189085.43    
      3200   337.8288      -218741.57      0             -218246.07      1050.0018      189111.51    
      3300   330.24296     -218752.83      0             -218268.46     -159.9861       189382.94    
      3400   325.81778     -218758.1       0             -218280.22      147.06023      189526.61    
      3500   328.51897     -218751.39      0             -218269.55      4.8387042      189833.35    
      3600   335.6423      -218738.37      0             -218246.08      424.24713      189966.25    
      3700   343.29954     -218732.79      0             -218229.27     -444.45728      190100.95    
      3800   337.84413     -218731.06      0             -218235.54     -67.741531      189801.78    
      3900   333.62136     -218744.15      0             -218254.82     -735.88089      190020.14    
      4000   329.04175     -218756.12      0             -218273.51      295.32181      189924.76    
      4100   329.63233     -218756.51      0             -218273.04      717.77988      189972.6     
      4200   332.87229     -218745.31      0             -218257.08     -26.574144      189687.27    
      4300   337.35137     -218734.64      0             -218239.84     -383.61855      189678       
      4400   341.41362     -218737.08      0             -218236.32     -416.67265      189515       
      4500   336.38167     -218741.86      0             -218248.49     -577.26961      189571.81    
      4600   333.27599     -218752.49      0             -218263.67     -226.6563       189433.21    
      4700   330.55297     -218756.01      0             -218271.18      382.11853      189123.55    
      4800   333.84164     -218753.82      0             -218264.17      935.75819      189381.22    
      4900   339.67218     -218747.04      0             -218248.84     -535.64574      189468.09    
      5000   337.02871     -218734.76      0             -218240.44      220.83162      189395.48    
      5100   339.07848     -218742.32      0             -218244.99     -152.94028      189666.22    
      5200   332.60477     -218747.61      0             -218259.78      887.07382      189611.91    
      5300   331.3725      -218755.71      0             -218269.68      341.63556      189865.01    
      5400   330.79987     -218751.19      0             -218266        -694.44035      190002.75    
      5500   336.61812     -218745.84      0             -218252.12     -588.8844       189990.09    
      5600   339.11049     -218737.67      0             -218240.3      -678.08097      190101.31    
      5700   338.30136     -218739.17      0             -218242.98     -460.68926      190097.52    
      5800   336.89271     -218749.54      0             -218255.41      728.36048      189948.78    
      5900   334.06743     -218755.65      0             -218265.67     -607.99249      189910.62    
      6000   330.11241     -218750.5       0             -218266.32      44.279985      189705.79    
      6100   336.28943     -218747.85      0             -218254.61     -775.01226      189835.59    
      6200   337.80377     -218740.7       0             -218245.24      310.58142      189658.86    
      6300   343.17448     -218749.24      0             -218245.9       823.88534      189393.98    
      6400   338.24392     -218749.68      0             -218253.58     -330.93344      189472.39    
      6500   332.09549     -218750.39      0             -218263.3       735.26628      189213.38    
      6600   331.58941     -218751.85      0             -218265.5       67.176384      189263.67    
      6700   334.82617     -218750.88      0             -218259.79      724.25013      189237.21    
      6800   333.20744     -218740.54      0             -218251.82     -81.182074      189492.57    
      6900   340.10776     -218747.07      0             -218248.23      1115.5953      189368.56    
      7000   336.39064     -218744.66      0             -218251.27     -787.98349      189763.91    
      7100   331.58888     -218745.92      0             -218259.57      1249.4107      189428       
      7200   334.1812      -218751.54      0             -218261.39      410.66658      189800.43    
      7300   334.04367     -218747.38      0             -218257.43      291.63817      189886.92    
      7400   335.3693      -218741.72      0             -218249.83      42.331103      189739.2     
      7500   336.40729     -218739.73      0             -218246.31      157.58535      189900.88    
      7600   337.03863     -218744.69      0             -218250.35     -41.758569      189828.31    
      7700   333.63496     -218748.38      0             -218259.03      1652.3691      189591.23    
      7800   330.58167     -218746.15      0             -218261.28     -712.20283      190232.5     
      7900   334.47659     -218751.49      0             -218260.91      811.15066      189710       
      8000   335.89619     -218747.96      0             -218255.3       1359.7013      189512.5     
      8100   334.98528     -218741.35      0             -218250.02      856.78991      189649.23    
      8200   337.69643     -218745.43      0             -218250.13      70.410953      189628.99    
      8300   335.67058     -218747.2       0             -218254.87     -763.17922      189753.58    
      8400   335.19309     -218751.89      0             -218260.26      575.10595      189599.73    
      8500   333.78194     -218749.57      0             -218260         266.80369      189480.24    
      8600   336.02781     -218748.68      0             -218255.82     -438.52627      189656.14    
      8700   332.03045     -218741.05      0             -218254.05      237.75953      189554.73    
      8800   338.9208      -218749         0             -218251.9      -92.472006      189843.39    
      8900   337.94355     -218750.81      0             -218255.14      663.82056      189415.41    
      9000   334.82163     -218748.97      0             -218257.88     -636.11171      189650.66    
      9100   337.89267     -218755.11      0             -218259.52     -487.90006      189695.67    
      9200   335.23023     -218749.57      0             -218257.88      277.36621      189700.15    
      9300   338.47174     -218750.75      0             -218254.31      57.964004      189786.9     
      9400   335.46391     -218745.15      0             -218253.12      270.62294      189823.52    
      9500   334.31393     -218740.69      0             -218250.35     -1119.239       190156.35    
      9600   337.07171     -218747.61      0             -218253.22     -770.81593      189721.06    
      9700   336.83411     -218750.79      0             -218256.75     -841.43777      189814.05    
      9800   331.80378     -218748.08      0             -218261.42      220.21653      189675.24    
      9900   337.12495     -218754.2       0             -218259.73     -693.71119      189724.39    
     10000   333.74572     -218744.37      0             -218254.86     -135.82987      189747.73    
     10100   336.22996     -218744.6       0             -218251.45     -376.55598      189565.99    
     10200   337.78234     -218747.58      0             -218252.15      304.31921      189582.82    
     10300   336.13799     -218750.25      0             -218257.23     -190.86243      189683.84    
     10400   336.00373     -218754.83      0             -218262         1909.9949      189579.7     
     10500   332.34911     -218748.44      0             -218260.98     -157.61244      189967.66    
     10600   336.36649     -218750.45      0             -218257.1      -102.03376      189825.65    
     10700   336.72631     -218744.6       0             -218250.72     -742.97102      189993.36    
     10800   337.7998      -218744.71      0             -218249.25      180.84052      189697.48    
     10900   333.09072     -218742.03      0             -218253.48      153.58503      189842.69    
     11000   335.40824     -218750.97      0             -218259.02      212.09323      189816.17    
     11100   332.64133     -218751.64      0             -218263.75      586.80573      189527.69    
     11200   332.97486     -218750.44      0             -218262.06     -473.28236      189656.79    
     11300   336.26028     -218748.72      0             -218255.52      295.45916      189699.89    
     11400   338.36557     -218746.36      0             -218250.08     -881.38123      189870.3     
     11500   339.46945     -218748.51      0             -218250.6       167.00713      189847.4     
     11600   333.38035     -218744.65      0             -218255.68     -70.52995       189770.65    
     11700   333.12747     -218748.56      0             -218259.95      150.87514      189599.99    
     11800   338.64922     -218757.96      0             -218261.26      179.14894      189682.04    
     11900   335.00129     -218750.76      0             -218259.41      259.11801      189652.86    
     12000   336.845       -218748.02      0             -218253.97     -397.56856      189796.11    
     12100   337.09767     -218744.56      0             -218250.13     -634.4483       189805.01    
     12200   338.92648     -218748.44      0             -218251.33     -268.40619      189752       
     12300   334.47887     -218748.62      0             -218258.03      115.51245      189730.59    
     12400   332.03629     -218751.02      0             -218264.02      128.09553      189717.64    
     12500   333.42607     -218752.11      0             -218263.06      756.93432      189653.4     
     12600   335.06985     -218748.41      0             -218256.96      383.51751      189654.4     
     12700   336.15092     -218743.48      0             -218250.44      1243.3581      189455.75    
     12800   338.33022     -218744.67      0             -218248.44     -331.79691      189711.7     
     12900   336.5522      -218749.41      0             -218255.79      230.17583      189688.13    
     13000   331.63039     -218750.1       0             -218263.69     -1022.9556      189999.63    
     13100   329.12835     -218748.52      0             -218265.79     -14.317603      189586.25    
     13200   334.66588     -218748.93      0             -218258.07     -371.40541      189577.18    
     13300   338.85244     -218746.92      0             -218249.92      395.55562      189707.61    
     13400   340.46304     -218748.81      0             -218249.44     -29.34196       189650.3     
     13500   334.21056     -218744.82      0             -218254.63     -15.21634       189774.44    
     13600   334.46005     -218752.1       0             -218261.55      785.60249      189661.41    
     13700   334.78587     -218754.83      0             -218263.8       1542.9535      189459.94    
     13800   336.47004     -218749.94      0             -218256.43      252.74919      189747.41    
     13900   337.21539     -218746.39      0             -218251.79      1167.7327      189477.29    
     14000   332.34672     -218738.83      0             -218251.37     -527.71502      189670.82    
     14100   334.64153     -218746.47      0             -218255.65     -704.67622      189602.97    
     14200   331.68742     -218747.38      0             -218260.88     -264.50444      189580.35    
     14300   332.70166     -218750.36      0             -218262.38      249.997        189320.59    
     14400   332.69508     -218747.32      0             -218259.35     -971.32742      189542.26    
     14500   337.81412     -218751.76      0             -218256.29      667.36185      189302.18    
     14600   337.61014     -218747.63      0             -218252.45      109.58352      189623.78    
     14700   339.72303     -218751.41      0             -218253.13      3.2375797      189781.54    
     14800   334.55693     -218748.2       0             -218257.5      -599.05446      189640.24    
     14900   335.37095     -218751.5       0             -218259.61     -228.81337      189740.55    
     15000   334.29223     -218749.13      0             -218258.82      501.51142      189751.29    
     15100   336.63437     -218750.1       0             -218256.35     -474.86405      189635.08    
     15200   335.66741     -218744.32      0             -218251.99     -832.12654      189791.07    
     15300   339.00612     -218748.21      0             -218250.98     -42.396315      189729.18    
     15400   336.3153      -218747.15      0             -218253.87     -1243.4573      189898.67    
     15500   329.11602     -218740.81      0             -218258.09     -627.34965      189781.69    
     15600   334.55477     -218749.42      0             -218258.72     -89.344998      189569.64    
     15700   332.67267     -218744.84      0             -218256.9       711.1745       189343.36    
     15800   335.7452      -218747.88      0             -218255.44      787.34572      189225.04    
     15900   333.27859     -218744.9       0             -218256.07     -292.60544      189295.17    
     16000   335.64528     -218749.51      0             -218257.22      712.83372      189173.08    
     16100   333.37499     -218747.02      0             -218258.06     -118.85599      189306.93    
     16200   330.70285     -218742.58      0             -218257.53      68.149307      189525.96    
     16300   334.06206     -218745.85      0             -218255.87      714.36027      189575.7     
     16400   335.71499     -218747.09      0             -218254.69     -104.2562       189643       
     16500   335.79261     -218746.34      0             -218253.83     -664.58783      189596.93    
     16600   335.59173     -218746.99      0             -218254.78      81.163374      189505.14    
     16700   335.0576      -218748.12      0             -218256.69      372.9212       189640.57    
     16800   336.16839     -218750.14      0             -218257.08     -2204.9998      190166.98    
     16900   334.35349     -218749.86      0             -218259.46      823.0622       189597.67    
     17000   333.79725     -218744.91      0             -218255.33     -755.15551      189957.13    
     17100   336.90866     -218747.78      0             -218253.64     -92.266934      189901.03    
     17200   336.85661     -218747.77      0             -218253.7      -188.36403      189966.23    
     17300   334.66653     -218747.02      0             -218256.16      636.85316      189686.16    
     17400   333.37573     -218746.9       0             -218257.93      246.91613      189574.58    
     17500   332.17756     -218746.36      0             -218259.15     -148.65752      189758.95    
     17600   333.71575     -218747.81      0             -218258.35      876.65768      189770.33    
     17700   334.20648     -218745.83      0             -218255.64      381.76247      189869.75    
     17800   334.01587     -218744.02      0             -218254.12      995.50232      189536.1     
     17900   336.6181      -218747.14      0             -218253.41      1564.5589      189613.48    
     18000   334.1629      -218746.2       0             -218256.08      70.313541      189645.02    
     18100   337.51918     -218754.7       0             -218259.65      255.92776      189408.14    
     18200   334.85873     -218749.18      0             -218258.04     -136.97261      189988.74    
     18300   333.33787     -218747.65      0             -218258.74      530.04258      189710.34    
     18400   335.17833     -218747.19      0             -218255.58     -435.23695      189665.67    
     18500   336.46988     -218745.98      0             -218252.48      354.52985      189693.44    
     18600   330.58053     -218736.95      0             -218252.09     -1133.5357      189886.8     
     18700   338.16278     -218750.76      0             -218254.78      535.34681      189739.48    
     18800   332.17252     -218746.7       0             -218259.5      -144.02623      189711.16    
     18900   331.86879     -218748.07      0             -218261.31     -356.99636      189771.11    
     19000   332.40199     -218745.22      0             -218257.68      1492.0793      189767.79    
     19100   336.58757     -218745.47      0             -218251.79     -760.71293      190054.56    
     19200   334.34375     -218742.03      0             -218251.64      1491.5614      189586.45    
     19300   334.02604     -218743.65      0             -218253.73      391.29331      189701.97    
     19400   333.2046      -218747.4       0             -218258.69     -1030.5734      189713.22    
     19500   332.65337     -218750.01      0             -218262.1      -5.642282       189588.71    
     19600   330.41974     -218744.43      0             -218259.8       73.093959      189590.07    
     19700   339.99005     -218752.34      0             -218253.67      57.752918      189767.26    
     19800   336.66608     -218745.84      0             -218252.05      999.82049      189468.54    
     19900   336.28962     -218746.38      0             -218253.14     -1410.3004      189910.52    
     20000   336.39594     -218750.65      0             -218257.25     -790.22989      189803.6     
     20100   334.87342     -218753.01      0             -218261.84      722.07601      189592.98    
     20200   330.8995      -218745.52      0             -218260.19     -62.769793      189962.96    
     20300   336.71214     -218749.67      0             -218255.81      100.49516      189858.24    
     20400   342.82672     -218754.55      0             -218251.73     -3.9090592      189922.36    
     20500   336.44923     -218746.15      0             -218252.67      159.06483      189833.47    
     20600   334.29709     -218746.85      0             -218256.53      195.42431      189732.98    
     20700   334.67293     -218751.51      0             -218260.64      545.23136      189677.28    
     20800   330.17531     -218745.54      0             -218261.27     -241.20537      189761.71    
     20900   337.7467      -218752.93      0             -218257.55      347.81238      189608.16    
     21000   334.81284     -218744.41      0             -218253.34      281.3809       189627.79    
     21100   336.32761     -218745.34      0             -218252.04     -990.28077      189734.42    
     21200   339.97916     -218754.65      0             -218256         205.27442      189524.38    
     21300   334.84736     -218750.66      0             -218259.54      667.46215      189644.78    
     21400   332.16721     -218747.82      0             -218260.62     -547.57822      189549.52    
     21500   337.04375     -218751.6       0             -218257.26      544.14388      189574.78    
     21600   333.06771     -218743.99      0             -218255.48     -561.02491      189719.94    
     21700   338.72944     -218750.69      0             -218253.87      851.65636      189643.17    
     21800   338.41273     -218749.41      0             -218253.05      1456.2015      189830.98    
     21900   332.34079     -218744.07      0             -218256.62      703.61694      189808.2     
     22000   333.81604     -218748.56      0             -218258.95      267.26871      189907.38    
     22100   333.05759     -218747.03      0             -218258.53      428.18649      189928.79    
     22200   332.48061     -218743.61      0             -218255.95      1138.5928      189814.26    
     22300   338.58823     -218749.15      0             -218252.53      983.76911      189807.65    
     22400   334.70748     -218744.05      0             -218253.13      1080.2711      189648.93    
     22500   338.60861     -218753.42      0             -218256.78      477.83381      189834.52    
     22600   338.38386     -218755.71      0             -218259.39     -250.71624      189752.56    
     22700   336.03565     -218754.1       0             -218261.23      338.31979      189472.31    
     22800   335.60846     -218749.81      0             -218257.56     -262.30961      189474.81    
     22900   335.95815     -218746.55      0             -218253.79      301.02097      189546.95    
     23000   337.24674     -218747.8       0             -218253.16      360.86721      189564.55    
     23005   338.6685      -218750.03      0             -218253.3      -340.28883      189560.63    
Loop time of 293.683 on 8 procs for 23000 steps with 11348 atoms

Performance: 6.766 ns/day, 3.547 hours/ns, 78.316 timesteps/s
97.5% CPU use with 8 MPI tasks x 1 OpenMP threads

MPI task timing breakdown:
Section |  min time  |  avg time  |  max time  |%varavg| %total
---------------------------------------------------------------
Pair    | 69.619     | 72.489     | 74.55      |  19.1 | 24.68
Kspace  | 137.29     | 139.6      | 142.8      |  15.0 | 47.53
Neigh   | 8.8578     | 9.1537     | 9.397      |   5.2 |  3.12
Comm    | 4.3475     | 4.3797     | 4.4031     |   0.8 |  1.49
Output  | 0.70247    | 0.70347    | 0.70994    |   0.3 |  0.24
Modify  | 52.242     | 53.297     | 54.341     |   8.9 | 18.15
Other   |            | 14.06      |            |       |  4.79

Nlocal:         1418.5 ave        1441 max        1395 min
Histogram: 1 0 2 1 0 0 1 1 1 1
Nghost:        3924.75 ave        3945 max        3905 min
Histogram: 1 0 1 1 1 0 2 1 0 1
Neighs:         105342 ave      109090 max      102772 min
Histogram: 2 0 0 2 2 1 0 0 0 1

Total # of neighbors = 842735
Ave neighs/atom = 74.262866
Neighbor list builds = 3610
Dangerous builds = 0
unfix 1

timestep 0.001
fix                 1 all nvt temp ${Tmp} ${Tmp} 0.1
fix                 1 all nvt temp 335 ${Tmp} 0.1
fix                 1 all nvt temp 335 335 0.1
compute             myRDF all rdf 100
fix                 RDF all ave/time 100 1 100 c_myRDF[*] file lammps00_${Tmp}.rdf mode vector
fix                 RDF all ave/time 100 1 100 c_myRDF[*] file lammps00_335.rdf mode vector
run                 345000
PPPM initialization ...
  using 12-bit tables for long-range coulomb (src/kspace.cpp:342)
  G vector (1/distance) = 0.36922542
  grid = 54 48 64
  stencil order = 5
  estimated absolute RMS force accuracy = 0.0017685881
  estimated relative force accuracy = 0.00012282164
  using double precision FFTW3
  3d grid and FFT values/proc = 34336 20736
Generated 0 of 6 mixed pair_coeff terms from geometric mixing rule
Neighbor list info ...
  update every 1 steps, delay 0 steps, check yes
  max neighbors/atom: 2000, page size: 100000
  master list distance cutoff = 8.3
  ghost atom cutoff = 8.3
  binsize = 4.15, bins = 14 12 18
  2 neighbor lists, perpetual/occasional/extra = 1 1 0
  (1) pair buck/coul/long, perpetual
      attributes: half, newton on
      pair build: half/bin/atomonly/newton
      stencil: half/bin/3d
      bin: standard
  (2) compute rdf, occasional, copy from (1)
      attributes: half, newton on
      pair build: copy
      stencil: none
      bin: none
Per MPI rank memory allocation (min/avg/max) = 8.236 | 8.237 | 8.238 Mbytes
   Step          Temp          E_pair         E_mol          TotEng         Press     
     23005   338.6685      -218750.03      0             -218253.3      -341.08727    
     23100   334.27264     -218745.59      0             -218255.31      577.59193    
     23200   335.66022     -218755.19      0             -218262.87      402.38433    
     23300   332.25804     -218756.05      0             -218268.73      9.3476005    
     23400   336.16185     -218755.75      0             -218262.69      684.29818    
     23500   335.51033     -218746.4       0             -218254.31      849.25729    
     23600   334.68662     -218745.28      0             -218254.39      387.20189    
     23700   337.22415     -218749.47      0             -218254.86     -286.57673    
     23800   334.11067     -218749.21      0             -218259.17     -588.67315    
     23900   331.08252     -218749.15      0             -218263.55     -650.50718    
     24000   335.66885     -218753.3       0             -218260.97      696.11604    
     24100   336.54388     -218744.77      0             -218251.16      581.01988    
     24200   338.27572     -218746.01      0             -218249.86      642.96053    
     24300   336.66801     -218748.25      0             -218254.46      509.54401    
     24400   336.40598     -218751.77      0             -218258.36     -364.51702    
     24500   334.08113     -218748.59      0             -218258.59     -58.617306    
     24600   337.68584     -218752.73      0             -218257.44     -463.38926    
     24700   338.33994     -218751.05      0             -218254.8      -89.38384     
     24800   337.91994     -218743.88      0             -218248.24      1178.2237    
     24900   339.24101     -218744.58      0             -218247.01     -282.27949    
     25000   336.91262     -218748.67      0             -218254.51      1083.7777    
     25100   336.21743     -218753.53      0             -218260.4       412.17148    
     25200   335.29477     -218751.8       0             -218260.02      45.873274    
     25300   334.94151     -218748.7       0             -218257.44      496.24787    
     25400   334.32443     -218742.77      0             -218252.42     -35.146382    
     25500   338.20973     -218738.69      0             -218242.63      841.86462    
     25600   334.98607     -218736.86      0             -218245.53     -272.74154    
     25700   339.09237     -218748.63      0             -218251.28     -508.78903    
     25800   338.53731     -218753.02      0             -218256.49      1842.3271    
     25900   336.12919     -218753.67      0             -218260.66      947.72177    
     26000   334.03101     -218751.21      0             -218261.28      1011.8682    
     26100   334.43154     -218746.12      0             -218255.61      342.29765    
     26200   336.91698     -218742.53      0             -218248.37     -127.21144    
     26300   338.36933     -218747.25      0             -218250.96     -258.03689    
     26400   335.62649     -218749.4       0             -218257.13     -892.93758    
     26500   332.88758     -218746.59      0             -218258.34      193.47437    
     26600   333.23836     -218746.74      0             -218257.98     -977.30705    
     26700   331.09977     -218742.76      0             -218257.13      86.53841     
     26800   334.3723      -218741         0             -218250.57      232.80673    
     26900   334.66203     -218736.44      0             -218245.58     -308.48748    
     27000   339.98775     -218748.3       0             -218249.64      298.77856    
     27100   336.4791      -218751.55      0             -218258.03      354.95845    
     27200   335.99593     -218752.29      0             -218259.48      168.34289    
     27300   336.17433     -218751.29      0             -218258.21      1221.9633    
     27400   337.50537     -218749.91      0             -218254.88      384.54486    
     27500   335.14137     -218739.39      0             -218247.83      27.242934    
     27600   340.01226     -218745.19      0             -218246.49     -992.60235    
     27700   337.09876     -218750.92      0             -218256.5      -15.301446    
     27800   335.02004     -218751.43      0             -218260.05      422.72289    
     27900   333.84873     -218748.2       0             -218258.54     -103.42537    
     28000   336.6963      -218747.79      0             -218253.96      260.75132    
     28100   336.68146     -218741.65      0             -218247.83      434.56287    
     28200   339.76244     -218742.85      0             -218244.52     -236.4961     
     28300   336.95254     -218746.98      0             -218252.77     -442.91775    
     28400   332.00769     -218747.01      0             -218260.05     -336.46846    
     28500   332.48075     -218748.19      0             -218260.54     -310.78941    
     28600   331.66885     -218742.63      0             -218256.16     -156.94085    
     28700   336.33084     -218743.07      0             -218249.77     -1047.2734    
     28800   335.36073     -218743.33      0             -218251.45      39.258666    
     28900   332.13576     -218744.18      0             -218257.03     -117.48756    
     29000   333.7391      -218747.85      0             -218258.35      303.21672    
     29100   330.01792     -218742.66      0             -218258.62      82.657249    
     29200   335.47501     -218747.84      0             -218255.79      62.894122    
     29300   338.95937     -218746.54      0             -218249.38      276.00237    
     29400   340.50736     -218743.68      0             -218244.26     -97.981445    
     29500   338.88879     -218750.44      0             -218253.39     -177.73786    
     29600   333.28068     -218747.28      0             -218258.45      40.168424    
     29700   335.60722     -218748.67      0             -218256.43      257.98925    
     29800   335.01951     -218746.02      0             -218254.64     -325.41507    
     29900   336.93034     -218747.68      0             -218253.5       222.51934    
     30000   337.45873     -218750.13      0             -218255.18     -193.18439    
     30100   332.10321     -218748.72      0             -218261.62      840.61568    
     30200   329.84514     -218749.83      0             -218266.04      528.17021    
     30300   336.62138     -218754.56      0             -218260.84      119.18538    
     30400   336.34824     -218745.95      0             -218252.63      270.92353    
     30500   337.56572     -218747.49      0             -218252.38      212.78561    
     30600   336.2128      -218749.37      0             -218256.24     -730.34898    
     30700   337.19934     -218755.95      0             -218261.38      175.72927    
     30800   331.58415     -218750.32      0             -218263.98      223.8607     
     30900   335.43225     -218745.37      0             -218253.39      987.42158    
     31000   335.69934     -218740.83      0             -218248.45      221.91484    
     31100   337.05494     -218745.73      0             -218251.37     -273.33275    
     31200   333.55222     -218748.12      0             -218258.89      901.34412    
     31300   335.71621     -218752.69      0             -218260.29      617.38135    
     31400   334.99945     -218749.92      0             -218258.57      1426.3938    
     31500   339.4587      -218747.04      0             -218249.15     -3.5173349    
     31600   340.18807     -218744.4       0             -218245.44      1163.9367    
     31700   340.75872     -218749.92      0             -218250.12      287.95432    
     31800   336.4026      -218747.68      0             -218254.27     -576.74452    
     31900   334.4284      -218748.65      0             -218258.14      104.71075    
     32000   334.91599     -218752.04      0             -218260.81      253.65326    
     32100   332.81611     -218748.37      0             -218260.23     -691.60437    
     32200   338.90163     -218749.43      0             -218252.35     -305.4897     
     32300   338.40413     -218744.93      0             -218248.58     -570.82529    
     32400   335.03857     -218744.16      0             -218252.75      18.768142    
     32500   333.84452     -218750.34      0             -218260.69      1313.1053    
     32600   336.60512     -218756.16      0             -218262.45      611.22309    
     32700   334.48293     -218751.03      0             -218260.44      738.11304    
     32800   335.45394     -218748.48      0             -218256.47     -0.35517588   
     32900   336.83888     -218749.35      0             -218255.31      130.39382    
     33000   339.8019      -218753.67      0             -218255.28     -693.34074    
     33100   332.47286     -218745.14      0             -218257.49      294.6311     
     33200   338.24789     -218753.07      0             -218256.96      818.82138    
     33300   334.38986     -218749.83      0             -218259.38     -174.9679     
     33400   331.94867     -218750.56      0             -218263.68      866.45562    
     33500   332.98171     -218752.15      0             -218263.76      3.2790655    
     33600   335.93506     -218749.45      0             -218256.72      1102.0893    
     33700   334.31202     -218742.66      0             -218252.32      282.90643    
     33800   338.90581     -218750.28      0             -218253.2       1168.1068    
     33900   332.16106     -218748.91      0             -218261.73      546.58941    
     34000   332.21425     -218752.46      0             -218265.19      522.23133    
     34100   333.97646     -218751.59      0             -218261.74      256.58882    
     34200   330.68081     -218742.26      0             -218257.24      66.035681    
     34300   335.07981     -218745.64      0             -218254.18     -226.3987     
     34400   333.3726      -218743.3       0             -218254.33      97.915624    
     34500   332.318       -218751.27      0             -218263.85      640.11495    
     34600   331.98514     -218755.36      0             -218268.43      9.3740976    
     34700   331.9107      -218749.8       0             -218262.98      354.79174    
     34800   333.79939     -218746.86      0             -218257.27      200.60273    
     34900   333.23733     -218744.93      0             -218256.17     -787.66869    
     35000   339.09802     -218752.06      0             -218254.7      -204.63124    
     35100   337.65357     -218749.62      0             -218254.38      265.83284    
     35200   334.91896     -218746.38      0             -218255.15     -228.52882    
     35300   334.43203     -218749.55      0             -218259.03      206.48809    
     35400   332.29456     -218750         0             -218262.61      1162.5209    
     35500   332.48821     -218749.62      0             -218261.96      1121.1269    
     35600   336.74584     -218746.89      0             -218252.97     -282.03377    
     35700   335.29649     -218740.35      0             -218248.57     -847.89242    
     35800   336.17865     -218744.44      0             -218251.36     -920.45449    
     35900   334.00815     -218747.2       0             -218257.31     -692.63318    
     36000   335.1274      -218749.31      0             -218257.77     -363.77256    
     36100   336.53935     -218750.63      0             -218257.02      39.91069     
     36200   334.79232     -218745.86      0             -218254.81     -76.89411     
     36300   338.83908     -218748.44      0             -218251.45      732.29072    
     36400   336.87787     -218742.41      0             -218248.3       942.33464    
     36500   335.79393     -218745.89      0             -218253.38      454.94712    
     36600   331.28169     -218746.97      0             -218261.08      1220.4       
     36700   333.63822     -218751.41      0             -218262.06      563.85938    
     36800   336.42519     -218751.3       0             -218257.86      941.62326    
     36900   336.58241     -218744.27      0             -218250.6      -389.41828    
     37000   338.42691     -218742.66      0             -218246.29     -374.71563    
     37100   339.34723     -218741.11      0             -218243.38      291.36061    
     37200   336.82364     -218745.23      0             -218251.21     -21.396717    
     37300   333.29099     -218747.24      0             -218258.4      -320.34166    
     37400   337.31857     -218755.63      0             -218260.88      454.96639    
     37500   333.17593     -218750.28      0             -218261.61      559.64418    
     37600   336.79404     -218747.54      0             -218253.56      486.82328    
     37700   342.64853     -218751.07      0             -218248.5       1159.535     
     37800   337.7926      -218747.55      0             -218252.1       239.31103    
     37900   333.82911     -218745.99      0             -218256.36     -407.74613    
     38000   336.84153     -218751.22      0             -218257.17     -167.88919    
     38100   333.60161     -218747.27      0             -218257.97      490.10725    
     38200   333.13523     -218748.33      0             -218259.72      885.03498    
     38300   333.9831      -218748.93      0             -218259.07      166.19252    
     38400   337.1832      -218747.21      0             -218252.66     -346.1269     
     38500   338.18321     -218746.12      0             -218250.1      -158.52742    
     38600   334.21811     -218746.14      0             -218255.94      62.280086    
     38700   331.85573     -218750.43      0             -218263.69     -648.97198    
     38800   334.80274     -218753.96      0             -218262.9       5.4495345    
     38900   334.215       -218748.16      0             -218257.96      482.22951    
     39000   337.70747     -218750.03      0             -218254.71     -167.5326     
     39100   336.9507      -218748.36      0             -218254.15      468.71742    
     39200   336.49014     -218749.23      0             -218255.7       866.27658    
     39300   329.00755     -218739.74      0             -218257.18      4.4645859    
     39400   334.91921     -218748.3       0             -218257.07     -1098.2534    
     39500   336.27896     -218750.19      0             -218256.97      58.528428    
     39600   333.93806     -218748.08      0             -218258.29     -236.13856    
     39700   337.02124     -218752.97      0             -218258.65      433.80271    
     39800   336.25656     -218752.1       0             -218258.91      1350.3249    
     39900   333.42707     -218747.02      0             -218257.98      202.79071    
     40000   336.01545     -218745.06      0             -218252.22      828.04104    
     40100   340.75877     -218747.87      0             -218248.07      739.20111    
     40200   336.20635     -218748.42      0             -218255.3       185.44429    
     40300   332.77812     -218750.39      0             -218262.3       19.919194    
     40400   334.58398     -218752.18      0             -218261.44     -214.44445    
     40500   336.0233      -218750.76      0             -218257.91     -279.56311    
     40600   337.83874     -218748.52      0             -218253.01     -79.483612    
     40700   337.50971     -218740.15      0             -218245.12     -1004.3061    
     40800   336.53422     -218739.5       0             -218245.9       306.89979    
     40900   332.23662     -218745.86      0             -218258.56      291.28479    
     41000   333.48115     -218749.91      0             -218260.79      8.1755413    
     41100   335.5239      -218751.46      0             -218259.34     -861.8533     
     41200   335.69364     -218747.94      0             -218255.57     -174.46611    
     41300   335.2466      -218741.37      0             -218249.66      77.936032    
     41400   338.40363     -218742.21      0             -218245.87      845.56938    
     41500   335.47738     -218747.28      0             -218255.23     -547.59543    
     41600   331.69169     -218747.09      0             -218260.59      392.63387    
     41700   334.96265     -218751.24      0             -218259.95      1650.8621    
     41800   334.80422     -218745.51      0             -218254.45      405.0343     
     41900   338.56591     -218746.54      0             -218249.96      819.60567    
     42000   336.84136     -218744.79      0             -218250.74      1110.1904    
     42100   333.09823     -218750.06      0             -218261.5      -214.63178    
     42200   332.68411     -218750.84      0             -218262.88     -876.44397    
     42300   335.61189     -218749.6       0             -218257.35     -26.367015    
     42400   336.65341     -218745.96      0             -218252.19      703.85452    
     42500   334.21505     -218741.98      0             -218251.78      552.14096    
     42600   333.74863     -218749.84      0             -218260.32      670.15587    
     42700   330.4633      -218751.44      0             -218266.74     -321.56197    
     42800   333.31363     -218751.34      0             -218262.47     -480.8447     
     42900   335.3808      -218748.39      0             -218256.49     -478.59095    
     43000   335.96968     -218746.57      0             -218253.79     -980.41365    
     43100   335.03025     -218745.82      0             -218254.43      761.97646    
     43200   336.62098     -218750.07      0             -218256.34      717.63285    
     43300   334.97697     -218752.08      0             -218260.76      362.63124    
     43400   329.12078     -218755.21      0             -218272.48      1526.6234    
     43500   330.7813      -218753.07      0             -218267.91     -62.781417    
     43600   334.56582     -218750.87      0             -218260.16      473.81984    
     43700   335.80541     -218748.25      0             -218255.72      1075.9567    
     43800   336.93649     -218746.4       0             -218252.21      26.975733    
     43900   334.38665     -218743.71      0             -218253.26      75.28723     
     44000   332.5573      -218750.15      0             -218262.38      78.36844     
     44100   332.45607     -218752.2       0             -218264.59      182.48871    
     44200   336.41161     -218753.57      0             -218260.15      695.79005    
     44300   334.05208     -218747.17      0             -218257.21      69.831682    
     44400   334.07406     -218746.39      0             -218256.4      -240.78575    
     44500   337.8587      -218750.17      0             -218254.63      479.45415    
     44600   334.72069     -218744.74      0             -218253.8       877.19017    
     44700   336.52901     -218747.18      0             -218253.59      38.484337    
     44800   335.98703     -218749.34      0             -218256.54     -706.17888    
     44900   334.93614     -218753.14      0             -218261.88     -327.12512    
     45000   329.71493     -218747.98      0             -218264.38      605.17355    
     45100   333.871       -218749.17      0             -218259.48     -805.9138     
     45200   336.63734     -218744.39      0             -218250.64      467.14337    
     45300   334.16348     -218740.96      0             -218250.84     -48.983762    
     45400   335.0444      -218746.62      0             -218255.2      -195.39271    
     45500   336.11273     -218753.2       0             -218260.22     -190.50494    
     45600   330.86991     -218746.33      0             -218261.03      271.87094    
     45700   333.24651     -218747.58      0             -218258.8      -718.24509    
     45800   336.42314     -218748.33      0             -218254.9       50.304855    
     45900   335.87086     -218744.06      0             -218251.43     -375.8343     
     46000   335.79867     -218743.68      0             -218251.16     -153.7667     
     46100   333.96537     -218750         0             -218260.17      8.4884448    
     46200   334.70451     -218755.55      0             -218264.63      137.84871    
     46300   334.57972     -218753.2       0             -218262.47      14.773165    
     46400   336.34209     -218747.25      0             -218253.93      483.86416    
     46500   333.50687     -218740.09      0             -218250.93     -481.16808    
     46600   335.02907     -218744         0             -218252.61      563.78421    
     46700   336.45144     -218751.67      0             -218258.19      99.498244    
     46800   332.94484     -218749.67      0             -218261.34      243.71605    
     46900   332.80036     -218747.66      0             -218259.54      637.64096    
     47000   334.68731     -218748.16      0             -218257.27     -829.21894    
     47100   335.92253     -218748.81      0             -218256.11     -1337.8071    
     47200   334.12123     -218745.94      0             -218255.88     -264.91871    
     47300   335.37438     -218746.83      0             -218254.93      410.3744     
     47400   340.34156     -218753.31      0             -218254.13     -844.98073    
     47500   337.27022     -218750.75      0             -218256.07     -664.25205    
     47600   328.92879     -218743.12      0             -218260.67      599.72952    
     47700   333.82817     -218751.08      0             -218261.44     -195.17771    
     47800   333.95403     -218746.4       0             -218256.58      472.1523     
     47900   338.12284     -218745.82      0             -218249.89      1392.2938    
     48000   336.76525     -218743.61      0             -218249.67      1004.9919    
     48100   335.35876     -218753.32      0             -218261.45      780.69178    
     48200   331.87548     -218750.62      0             -218263.85      540.51644    
     48300   333.81886     -218748.8       0             -218259.19     -36.891127    
     48400   336.2633      -218746.31      0             -218253.11     -479.2028     
     48500   332.1732      -218738.93      0             -218251.73      51.056657    
     48600   333.45789     -218743.13      0             -218254.05      987.29679    
     48700   331.27813     -218751.36      0             -218265.47      18.789357    
     48800   333.7989      -218755.16      0             -218265.57      897.62703    
     48900   333.19364     -218748.66      0             -218259.96     -51.150632    
     49000   337.96977     -218750.32      0             -218254.61     -150.93031    
     49100   334.69963     -218745.81      0             -218254.9       6.8399409    
     49200   336.4882      -218750.89      0             -218257.36     -42.792751    
     49300   336.53144     -218752.67      0             -218259.07      161.12631    
     49400   334.76235     -218749         0             -218258         1192.9679    
     49500   334.8028      -218745.57      0             -218254.51      1488.5272    
     49600   339.19667     -218749.19      0             -218251.69      202.27072    
     49700   337.03711     -218746.61      0             -218252.27     -294.66352    
     49800   335.09443     -218751.19      0             -218259.7      -409.78479    
     49900   331.80014     -218750.19      0             -218263.54      901.5361     
     50000   331.41905     -218746.63      0             -218260.53      1139.736     
     50100   337.7667      -218749.25      0             -218253.84      409.37355    
     50200   334.65743     -218743.58      0             -218252.73      132.07121    
     50300   334.87657     -218745.63      0             -218254.46     -227.7966     
     50400   335.98112     -218751.74      0             -218258.96     -20.806841    
     50500   330.82094     -218748.93      0             -218263.71     -193.20968    
     50600   334.72943     -218751.39      0             -218260.44     -36.861855    
     50700   335.56028     -218742.38      0             -218250.21      313.52673    
     50800   338.02142     -218745.59      0             -218249.81      20.096328    
     50900   334.424       -218746.2       0             -218255.7      -380.35215    
     51000   335.24681     -218751.83      0             -218260.12      283.84171    
     51100   332.0311      -218747.38      0             -218260.38      700.48816    
     51200   335.92876     -218751.11      0             -218258.39      241.32342    
     51300   334.15197     -218746.34      0             -218256.24      635.7697     
     51400   333.6527      -218744.92      0             -218255.55     -83.036115    
     51500   336.24063     -218748.75      0             -218255.58     -589.94196    
     51600   333.97518     -218745.17      0             -218255.33     -422.62285    
     51700   337.43689     -218750.46      0             -218255.54     -805.08862    
     51800   335.43716     -218747.06      0             -218255.07      497.4908     
     51900   335.41618     -218747.23      0             -218255.27      63.718944    
     52000   335.26716     -218748.81      0             -218257.07     -563.81198    
     52100   334.86879     -218751.3       0             -218260.14     -126.14339    
     52200   331.75065     -218748.6       0             -218262.01     -123.2711     
     52300   333.22843     -218748.24      0             -218259.49     -486.01189    
     52400   338.19372     -218746.58      0             -218250.55      1411.5773    
     52500   338.92718     -218746.94      0             -218249.83     -444.35414    
     52600   334.27019     -218745.36      0             -218255.08     -391.95502    
     52700   335.12344     -218752.41      0             -218260.88      316.34046    
     52800   333.09288     -218749.41      0             -218260.85     -360.49601    
     52900   332.50045     -218746.59      0             -218258.91      412.92221    
     53000   335.12648     -218745.62      0             -218254.08      381.02051    
     53100   335.07428     -218742.14      0             -218250.68     -478.14785    
     53200   333.26874     -218744.77      0             -218255.96      504.10711    
     53300   330.78841     -218750.39      0             -218265.22      472.50096    
     53400   331.83402     -218750.89      0             -218264.18     -254.73891    
     53500   334.28942     -218747.43      0             -218257.12      470.0937     
     53600   333.53229     -218742.65      0             -218253.45      950.82458    
     53700   336.96076     -218747.62      0             -218253.39      767.96158    
     53800   336.04748     -218747.95      0             -218255.06     -287.00957    
     53900   331.39436     -218745.28      0             -218259.22      439.28273    
     54000   332.4191      -218752.32      0             -218264.75     -272.15904    
     54100   331.12597     -218759.14      0             -218273.47     -270.19872    
     54200   330.93251     -218753.66      0             -218268.27     -465.49783    
     54300   331.14178     -218745.61      0             -218259.92     -852.90542    
     54400   337.02715     -218749.79      0             -218255.47      8.1965791    
     54500   336.59761     -218745.91      0             -218252.22      136.90223    
     54600   337.77543     -218747.11      0             -218251.69     -210.3131     
     54700   334.60485     -218747.01      0             -218256.24      1142.1333    
     54800   333.07944     -218751.99      0             -218263.45      562.5334     
     54900   333.18183     -218752.75      0             -218264.06      325.97571    
     55000   337.2631      -218750.07      0             -218255.4       69.602585    
     55100   340.29042     -218750         0             -218250.89      72.174211    
     55200   335.72739     -218746.58      0             -218254.17      132.56052    
     55300   334.32065     -218749.07      0             -218258.72     -107.74675    
     55400   336.19258     -218754.59      0             -218261.49     -178.42521    
     55500   334.93296     -218755.66      0             -218264.4      -143.65259    
     55600   331.46297     -218750.03      0             -218263.87      243.96321    
     55700   335.30665     -218747.26      0             -218255.46     -45.583106    
     55800   338.43305     -218748.39      0             -218252         80.466245    
     55900   333.71633     -218743.54      0             -218254.07      131.89125    
     56000   331.77823     -218748.18      0             -218261.55      405.66334    
     56100   331.62178     -218753.4       0             -218267.01     -398.43162    
     56200   332.54095     -218749.24      0             -218261.5       274.95195    
     56300   338.66889     -218753.54      0             -218256.81      1354.4537    
     56400   331.87091     -218743.32      0             -218256.56      2175.746     
     56500   335.43363     -218747.86      0             -218255.87      82.857974    
     56600   336.9932      -218750.62      0             -218256.35      1238.5848    
     56700   334.93043     -218748.66      0             -218257.42      576.16709    
     56800   335.55419     -218750.25      0             -218258.09      1004.2359    
     56900   336.44252     -218752.11      0             -218258.64     -80.324026    
     57000   332.72499     -218746.53      0             -218258.52      22.013741    
     57100   336.37843     -218746.84      0             -218253.47     -515.2019     
     57200   339.86842     -218745.74      0             -218247.25     -13.182407    
     57300   339.35144     -218747.47      0             -218249.74      213.87871    
     57400   331.32846     -218746.3       0             -218260.34     -206.56211    
     57500   330.63696     -218745.84      0             -218260.89      10.733607    
     57600   334.35888     -218749.37      0             -218258.96     -219.71613    
     57700   337.75664     -218748.92      0             -218253.53      259.49585    
     57800   340.82645     -218749.26      0             -218249.37      1215.8005    
     57900   336.26182     -218745.59      0             -218252.39      294.51354    
     58000   333.75013     -218752.35      0             -218262.83      125.56766    
     58100   332.55569     -218751.6       0             -218263.84      1085.5489    
     58200   336.46002     -218751.33      0             -218257.84      50.910803    
     58300   337.08931     -218748.12      0             -218253.71      735.94788    
     58400   332.87683     -218741.77      0             -218253.53      44.050541    
     58500   335.56963     -218754.19      0             -218262        -619.27976    
     58600   334.0148      -218757.68      0             -218267.77     -1369.8409    
     58700   334.58923     -218753.03      0             -218262.28      34.350752    
     58800   333.42848     -218746.19      0             -218257.15      693.73152    
     58900   337.42476     -218750.07      0             -218255.16      1453.7261    
     59000   339.36233     -218753.56      0             -218255.81      99.993292    
     59100   330.30173     -218749.5       0             -218265.04      291.54455    
     59200   330.66262     -218755.07      0             -218270.08      1845.3686    
     59300   333.83572     -218753.92      0             -218264.28     -247.87254    
     59400   332.68765     -218746.79      0             -218258.83     -103.35757    
     59500   337.42385     -218749.65      0             -218254.74     -279.46262    
     59600   335.86897     -218747.76      0             -218255.13      130.68643    
     59700   333.74627     -218751.09      0             -218261.58     -62.719749    
     59800   330.27107     -218754.61      0             -218270.2      -380.24682    
     59900   332.75487     -218755.98      0             -218267.93      397.1816     
     60000   332.93125     -218751.16      0             -218262.85      33.149835    
     60100   334.20204     -218748.13      0             -218257.95     -498.99771    
     60200   335.45495     -218746.29      0             -218254.28     -306.67732    
     60300   337.46079     -218748.63      0             -218253.67      806.92879    
     60400   333.1913      -218751.08      0             -218262.39      205.50442    
     60500   331.58587     -218753.66      0             -218267.32      1114.0683    
     60600   332.86852     -218750.92      0             -218262.7       702.54477    
     60700   335.70438     -218749.03      0             -218256.65      1199.441     
     60800   335.629       -218748.35      0             -218256.07      859.77429    
     60900   337.97594     -218753.29      0             -218257.57     -334.97663    
     61000   335.24896     -218753.5       0             -218261.78      511.39       
     61100   331.39996     -218756.48      0             -218270.41      30.982199    
     61200   331.53273     -218756.08      0             -218269.81      266.29596    
     61300   334.52902     -218751.43      0             -218260.77      325.01378    
     61400   336.25254     -218750.63      0             -218257.44     -148.84471    
     61500   335.08853     -218746.49      0             -218255.01      42.262759    
     61600   336.12147     -218746.81      0             -218253.81      198.97025    
     61700   333.72632     -218748.89      0             -218259.41     -613.20983    
     61800   330.4898      -218750.88      0             -218266.14      167.13619    
     61900   333.51002     -218753.34      0             -218264.17      699.85883    
     62000   335.78676     -218747.2       0             -218254.7       198.8446     
     62100   336.60353     -218746.68      0             -218252.98     -281.35633    
     62200   336.17287     -218748.37      0             -218255.3      -85.249357    
     62300   334.70549     -218750.47      0             -218259.56      1156.2799    
     62400   333.85708     -218754.99      0             -218265.32     -130.77595    
     62500   333.42804     -218755.09      0             -218266.04     -185.40655    
     62600   335.5181      -218747.77      0             -218255.67      283.55617    
     62700   335.52436     -218744.29      0             -218252.17      662.91643    
     62800   336.87462     -218748.95      0             -218254.85      240.94872    
     62900   329.27787     -218745.16      0             -218262.2       123.85029    
     63000   334.02822     -218753.3       0             -218263.37     -798.32934    
     63100   334.11833     -218749.07      0             -218259.01      51.99968     
     63200   339.697       -218752.38      0             -218254.14     -366.20222    
     63300   336.18286     -218747.13      0             -218254.04     -33.815713    
     63400   333.91336     -218745.84      0             -218256.08     -468.2339     
     63500   336.01007     -218753.32      0             -218260.49     -116.68087    
     63600   333.69937     -218754.03      0             -218264.59      1293.3119    
     63700   333.29716     -218752.22      0             -218263.36      1838.1253    
     63800   334.80172     -218744.68      0             -218253.62     -18.349704    
     63900   336.95453     -218744.71      0             -218250.5       1217.3481    
     64000   336.20572     -218748.03      0             -218254.91      1115.1982    
     64100   333.67536     -218750.48      0             -218261.07      1153.8476    
     64200   336.6672      -218755.07      0             -218261.28      568.85883    
     64300   333.05507     -218748.36      0             -218259.86      697.24573    
     64400   337.74605     -218752.25      0             -218256.88      2423.2915    
     64500   339.38636     -218749.08      0             -218251.3       712.18848    
     64600   340.73563     -218741.76      0             -218242        -1056.8611    
     64700   338.50619     -218740.84      0             -218244.34     -750.51571    
     64800   334.56351     -218745.02      0             -218254.32      688.31184    
     64900   337.10695     -218752.34      0             -218257.9       515.35424    
     65000   337.40475     -218756.48      0             -218261.6       603.89107    
     65100   335.60028     -218753.81      0             -218261.58      1584.1829    
     65200   337.98044     -218752.75      0             -218257.03      1049.5192    
     65300   333.92156     -218739.62      0             -218249.86      1143.0575    
     65400   338.09848     -218745.93      0             -218250.03      1488.2353    
     65500   333.37406     -218749.19      0             -218260.22      1222.6241    
     65600   329.81308     -218747.16      0             -218263.42     -651.2671     
     65700   333.03496     -218748.75      0             -218260.29     -637.64742    
     65800   332.94075     -218742.9       0             -218254.57      0.17284575   
     65900   338.12427     -218747.26      0             -218251.33      350.65797    
     66000   334.34821     -218746.95      0             -218256.56     -64.408985    
     66100   331.79055     -218753.43      0             -218266.79     -112.5645     
     66200   331.74635     -218751.64      0             -218265.06     -209.3539     
     66300   333.5631      -218748.74      0             -218259.5       995.16964    
     66400   338.62262     -218751.21      0             -218254.54      771.73918    
     66500   336.63866     -218747.36      0             -218253.61      368.18758    
     66600   333.71011     -218749.33      0             -218259.88      540.42019    
     66700   329.5881      -218752.62      0             -218269.21     -8.7523692    
     66800   332.75257     -218753.7       0             -218265.64      257.33096    
     66900   336.72009     -218752.95      0             -218259.07     -34.743818    
     67000   333.60845     -218745.86      0             -218256.55      661.30132    
     67100   336.44095     -218748.68      0             -218255.21     -232.18846    
     67200   337.63392     -218747.28      0             -218252.07     -87.590645    
     67300   334.92855     -218741.53      0             -218250.29      114.15489    
     67400   337.55747     -218751.3       0             -218256.2      -1061.2924    
     67500   332.75995     -218750.26      0             -218262.19     -7.1625123    
     67600   331.98254     -218749.71      0             -218262.79     -157.99266    
     67700   334.32528     -218746.58      0             -218256.22     -27.487151    
     67800   338.77082     -218744.88      0             -218248         1145.3146    
     67900   336.23045     -218744.12      0             -218250.97      466.13843    
     68000   337.47971     -218750.55      0             -218255.57      712.56127    
     68100   333.40868     -218750.56      0             -218261.54      1468.7358    
     68200   333.56318     -218751.5       0             -218262.26      685.69194    
     68300   333.53574     -218748.15      0             -218258.95     -419.75057    
     68400   335.71399     -218748.87      0             -218256.47     -45.072692    
     68500   335.81107     -218748.26      0             -218255.72     -690.02504    
     68600   333.88375     -218746.98      0             -218257.27     -376.27299    
     68700   336.3091      -218751.22      0             -218257.95     -123.40069    
     68800   332.96866     -218748.69      0             -218260.32     -578.44029    
     68900   333.73592     -218752.99      0             -218263.49     -578.09597    
     69000   335.81645     -218754.87      0             -218262.32      332.46822    
     69100   336.2617      -218748.37      0             -218255.17      934.29593    
     69200   337.33364     -218745.77      0             -218250.99     -931.3616     
     69300   334.55283     -218744.92      0             -218254.22     -624.47836    
     69400   333.6785      -218752.45      0             -218263.03      1239.5289    
     69500   331.70345     -218749.99      0             -218263.48     -181.55054    
     69600   335.80791     -218753.23      0             -218260.7       905.13257    
     69700   336.84823     -218749.57      0             -218255.51     -45.720285    
     69800   335.34377     -218744.06      0             -218252.21     -59.860297    
     69900   335.9573      -218745.75      0             -218252.99      288.46591    
     70000   332.19413     -218749.46      0             -218262.23      299.79002    
     70100   331.57992     -218749.79      0             -218263.46     -325.47427    
     70200   333.55901     -218747.25      0             -218258.01     -206.62735    
     70300   337.02842     -218746.3       0             -218251.97      23.661806    
     70400   339.14769     -218749.69      0             -218252.26      242.65427    
     70500   338.12266     -218751         0             -218255.07      1099.6908    
     70600   334.15341     -218747.3       0             -218257.19      614.69969    
     70700   332.74445     -218746.78      0             -218258.74      621.30994    
     70800   334.80367     -218750.88      0             -218259.82      756.16007    
     70900   332.60573     -218749.77      0             -218261.93      521.22816    
     71000   336.33949     -218753.89      0             -218260.57     -71.379139    
     71100   336.45654     -218748.21      0             -218254.73      390.98164    
     71200   340.69571     -218749.2       0             -218249.5       240.30275    
     71300   337.81074     -218748.53      0             -218253.06     -61.164578    
     71400   336.15589     -218755.47      0             -218262.42      86.844172    
     71500   334.57271     -218754.31      0             -218263.59     -1020.7946    
     71600   336.84216     -218753.32      0             -218259.27     -24.41768     
     71700   337.77236     -218750.24      0             -218254.82      1078.073     
     71800   340.03803     -218751.33      0             -218252.59      816.03325    
     71900   332.98689     -218747.73      0             -218259.34      445.29647    
     72000   333.38479     -218755.4       0             -218266.42      682.10195    
     72100   333.12504     -218753.24      0             -218264.64      1200.2598    
     72200   335.98607     -218749.7       0             -218256.91      1399.1796    
     72300   334.53338     -218745.4       0             -218254.73      1136.8026    
     72400   333.97131     -218745.16      0             -218255.32     -462.15591    
     72500   334.33358     -218748.13      0             -218257.76      359.61572    
     72600   333.31207     -218755.19      0             -218266.32     -1074.4701    
     72700   327.42116     -218750.59      0             -218270.36      52.285552    
     72800   334.63514     -218754.85      0             -218264.03      447.98322    
     72900   334.16513     -218750.56      0             -218260.44      430.73034    
     73000   335.19305     -218747.52      0             -218255.88      695.08364    
     73100   337.42036     -218747.66      0             -218252.76      993.38491    
     73200   337.13427     -218749.36      0             -218254.88      27.659021    
     73300   333.42939     -218752.87      0             -218263.83      510.33933    
     73400   335.68062     -218758.05      0             -218265.7       106.09138    
     73500   335.32355     -218753.34      0             -218261.51      819.77411    
     73600   333.16793     -218746.2       0             -218257.54      108.408      
     73700   338.27078     -218752.66      0             -218256.52      298.54748    
     73800   334.54726     -218748.24      0             -218257.56     -160.23897    
     73900   332.00807     -218746.9       0             -218259.94     -67.932248    
     74000   333.11776     -218752.29      0             -218263.7      -253.16302    
     74100   333.08402     -218753.89      0             -218265.35      323.40153    
     74200   333.22438     -218748.67      0             -218259.92      926.85135    
     74300   337.68991     -218747.68      0             -218252.39      474.45357    
     74400   336.9162      -218747.13      0             -218252.97     -674.02334    
     74500   335.99221     -218751.7       0             -218258.89     -339.07334    
     74600   332.14609     -218751.36      0             -218264.2       351.4407     
     74700   335.74501     -218754.83      0             -218262.39      721.69247    
     74800   331.83172     -218746.59      0             -218259.88      130.17607    
     74900   338.88299     -218754.04      0             -218257         693.23532    
     75000   334.4903      -218745.64      0             -218255.04     -328.42568    
     75100   338.35208     -218750.87      0             -218254.61      554.50067    
     75200   333.01278     -218746.64      0             -218258.21      247.32496    
     75300   335.15919     -218755.3       0             -218263.72      604.42809    
     75400   330.7924      -218750.94      0             -218265.76      1234.1404    
     75500   337.72014     -218754.46      0             -218259.12     -593.45724    
     75600   333.35878     -218740.53      0             -218251.59      538.34386    
     75700   333.59594     -218742.48      0             -218253.19      529.70022    
     75800   333.0622      -218747.07      0             -218258.56      313.95327    
     75900   332.30789     -218749.98      0             -218262.57     -1201.0463    
     76000   329.88438     -218745.32      0             -218261.47      273.74032    
     76100   335.37259     -218750.94      0             -218259.05      1260.2329    
     76200   334.63025     -218748.64      0             -218257.83      428.60001    
     76300   332.13177     -218744.02      0             -218256.88     -393.02753    
     76400   339.6492      -218751.44      0             -218253.27      664.75209    
     76500   333.13674     -218738.93      0             -218250.31      651.44342    
     76600   334.87121     -218743.76      0             -218252.6      -1450.7729    
     76700   332.5407      -218749.21      0             -218261.47     -391.80789    
     76800   331.84705     -218750.88      0             -218264.16      726.83768    
     76900   335.38401     -218751.99      0             -218260.08     -380.45428    
     77000   336.89146     -218747.68      0             -218253.55      780.61258    
     77100   330.29824     -218737.22      0             -218252.77      562.41516    
     77200   338.13281     -218750.11      0             -218254.16      72.079265    
     77300   335.62449     -218749.67      0             -218257.41      637.82536    
     77400   335.16436     -218751.5       0             -218259.91      410.72366    
     77500   334.96974     -218753.41      0             -218262.1       384.78373    
     77600   333.18811     -218752.16      0             -218263.46      0.23330342   
     77700   332.91502     -218746.95      0             -218258.66     -140.83237    
     77800   337.08957     -218746.98      0             -218252.57     -482.8496     
     77900   332.16242     -218739.55      0             -218252.36     -466.83738    
     78000   334.27816     -218749.53      0             -218259.24     -837.26264    
     78100   333.12215     -218754.38      0             -218265.79     -2042.4671    
     78200   333.4672      -218751.76      0             -218262.66     -1185.2462    
     78300   334.16128     -218746.95      0             -218256.83      300.27609    
     78400   333.7544      -218744.27      0             -218254.75     -150.12529    
     78500   334.07986     -218745.54      0             -218255.54     -493.31311    
     78600   335.7288      -218749.65      0             -218257.23      1066.6886    
     78700   331.86866     -218744.53      0             -218257.77      593.08889    
     78800   334.31793     -218748.3       0             -218257.95      416.14765    
     78900   336.78816     -218751.98      0             -218258         1704.3036    
     79000   337.76509     -218753.23      0             -218257.82      787.28798    
     79100   337.97771     -218753.68      0             -218257.97     -1760.759     
     79200   333.96609     -218748.08      0             -218258.24     -166.07893    
     79300   334.13835     -218750.02      0             -218259.93      131.72769    
     79400   334.90204     -218749.58      0             -218258.37      198.92433    
     79500   339.0878      -218750.34      0             -218253        -509.82143    
     79600   341.94593     -218749.4       0             -218247.87      659.78695    
     79700   336.59326     -218747.34      0             -218253.65     -997.79348    
     79800   332.45948     -218748.83      0             -218261.21     -460.9682     
     79900   334.41412     -218751.42      0             -218260.93      287.03158    
     80000   332.92214     -218746.33      0             -218258.03      1069.4424    
     80100   338.42134     -218748.07      0             -218251.7       113.30219    
     80200   340.97097     -218747.03      0             -218246.93      1458.2873    
     80300   331.43239     -218737.43      0             -218251.31      674.56552    
     80400   334.83158     -218752.59      0             -218261.49      1239.8441    
     80500   333.95741     -218753.39      0             -218263.57      1264.0026    
     80600   336.24601     -218753.97      0             -218260.79      290.83482    
     80700   338.18204     -218748.78      0             -218252.77     -593.94591    
     80800   337.35639     -218745.3       0             -218250.49     -169.52743    
     80900   332.21796     -218741.65      0             -218254.38     -38.535752    
     81000   334.27696     -218747.88      0             -218257.59     -760.37618    
     81100   331.97903     -218745.42      0             -218258.5      -530.79844    
     81200   335.61281     -218749         0             -218256.75     -337.73136    
     81300   335.02949     -218746.16      0             -218254.77      625.3594     
     81400   338.10433     -218748.28      0             -218252.38      1039.01      
     81500   334.93978     -218748.3       0             -218257.04      1000.9582    
     81600   333.67704     -218752.68      0             -218263.27      1308.42      
     81700   333.29953     -218753.08      0             -218264.22      41.947072    
     81800   338.84807     -218751.63      0             -218254.64      612.46971    
     81900   336.951       -218744.7       0             -218250.49      138.33709    
     82000   337.82987     -218749.36      0             -218253.86     -30.963236    
     82100   333.63158     -218749.08      0             -218259.74      478.71521    
     82200   335.97894     -218754.8       0             -218262.02      166.07332    
     82300   330.51093     -218744.66      0             -218259.89      798.74017    
     82400   334.17329     -218748.65      0             -218258.51      363.58253    
     82500   333.19097     -218745.74      0             -218257.05      618.04242    
     82600   335.63883     -218747.52      0             -218255.24      354.83081    
     82700   336.89784     -218749.98      0             -218255.85      661.46569    
     82800   330.24677     -218744.16      0             -218259.78      90.475856    
     82900   331.37577     -218751.27      0             -218265.24      1236.4382    
     83000   330.0341      -218751.12      0             -218267.06      663.68571    
     83100   335.70131     -218749.71      0             -218257.33      790.26808    
     83200   339.6574      -218751.63      0             -218253.45      1033.1869    
     83300   334.96474     -218747.49      0             -218256.19      457.38865    
     83400   332.39438     -218747.74      0             -218260.21      115.19438    
     83500   331.23763     -218751.05      0             -218265.22     -153.91318    
     83600   328.85357     -218752.7       0             -218270.37     -705.08702    
     83700   335.62895     -218755.39      0             -218263.12      102.25359    
     83800   334.98434     -218747.55      0             -218256.22      1836.272     
     83900   336.02307     -218747.17      0             -218254.32      302.03115    
     84000   334.84527     -218747.48      0             -218256.36     -1025.2386    
     84100   333.97585     -218754.46      0             -218264.61      339.49825    
     84200   330.02566     -218751.74      0             -218267.69     -910.56268    
     84300   334.02251     -218749.25      0             -218259.34      475.66085    
     84400   335.97887     -218748.8       0             -218256.01      746.83298    
     84500   339.42986     -218753.95      0             -218256.11     -762.71117    
     84600   331.89583     -218746.27      0             -218259.47     -202.1008     
     84700   336.21213     -218756.28      0             -218263.15      657.48609    
     84800   332.12192     -218750.53      0             -218263.4      -371.08811    
     84900   337.44458     -218750.38      0             -218255.44      67.046457    
     85000   335.90676     -218743.16      0             -218250.48      1468.085     
     85100   337.67546     -218747.8       0             -218252.52      683.81706    
     85200   331.01106     -218746.12      0             -218260.63     -245.09389    
     85300   333.93063     -218753.33      0             -218263.55      5.0589091    
     85400   335.54419     -218754.3       0             -218262.15      1436.2568    
     85500   336.31741     -218751.22      0             -218257.93      72.393748    
     85600   337.62301     -218748.62      0             -218253.42      393.8564     
     85700   335.59762     -218744.9       0             -218252.67      191.49657    
     85800   333.45464     -218749.02      0             -218259.94     -458.82929    
     85900   332.68567     -218754.81      0             -218266.86     -445.56547    
     86000   335.67034     -218756.34      0             -218264.01      1017.2637    
     86100   334.95656     -218747.88      0             -218256.59      772.00444    
     86200   338.05256     -218749.67      0             -218253.84      493.28719    
     86300   335.48638     -218748.39      0             -218256.32      89.512743    
     86400   335.23977     -218750.84      0             -218259.14     -444.11136    
     86500   330.90313     -218751.25      0             -218265.91     -584.78735    
     86600   330.46627     -218757.77      0             -218273.07      321.62028    
     86700   330.52293     -218752.48      0             -218267.69      565.04111    
     86800   333.29417     -218750.06      0             -218261.21      422.77886    
     86900   333.63119     -218747.23      0             -218257.89     -670.84191    
     87000   334.96991     -218747.69      0             -218256.38     -443.1465     
     87100   337.39458     -218749.64      0             -218254.78     -650.67433    
     87200   336.90915     -218748.86      0             -218254.71      666.48641    
     87300   335.07621     -218750.75      0             -218259.29      198.05122    
     87400   331.43392     -218751.1       0             -218264.98      209.27065    
     87500   333.68993     -218753         0             -218263.57     -512.95301    
     87600   331.32753     -218740.59      0             -218254.63      318.33238    
     87700   338.20061     -218749.27      0             -218253.23      85.564112    
     87800   336.11909     -218749.51      0             -218256.51     -509.31346    
     87900   332.76626     -218748.67      0             -218260.59      223.67279    
     88000   331.96521     -218748.89      0             -218261.99      1030.8348    
     88100   338.5847      -218750.95      0             -218254.34      217.86896    
     88200   337.17872     -218740.97      0             -218246.43      391.46166    
     88300   335.80311     -218744.27      0             -218251.74     -519.82508    
     88400   334.90339     -218749.41      0             -218258.2      -1283         
     88500   334.7392      -218751.2       0             -218260.23     -140.31762    
     88600   334.5937      -218750.12      0             -218259.37     -403.43304    
     88700   336.66305     -218746.39      0             -218252.6      -122.49272    
     88800   342.34388     -218749.46      0             -218247.34      788.71857    
     88900   336.5791      -218747.02      0             -218253.36      196.81989    
     89000   335.00389     -218750.51      0             -218259.15      355.10239    
     89100   332.01569     -218746.9       0             -218259.93      593.92008    
     89200   335.28107     -218750.81      0             -218259.05      396.29239    
     89300   334.53567     -218748.31      0             -218257.64     -52.169654    
     89400   336.78701     -218748.32      0             -218254.35     -836.51299    
     89500   336.01432     -218743.7       0             -218250.87      300.99227    
     89600   336.92952     -218747.76      0             -218253.58     -51.892129    
     89700   331.12825     -218748.32      0             -218262.65     -625.17841    
     89800   335.32393     -218754.2       0             -218262.38     -1070.36      
     89900   334.53333     -218749.42      0             -218258.75     -243.11925    
     90000   335.47135     -218747.62      0             -218255.58     -264.58979    
     90100   341.28465     -218748.95      0             -218248.38      605.3687     
     90200   342.80222     -218746.35      0             -218243.56      1128.6958    
     90300   335.02842     -218743.49      0             -218252.1      -112.93215    
     90400   335.3549      -218749.66      0             -218257.79      392.1865     
     90500   332.65467     -218748.95      0             -218261.04      760.89674    
     90600   335.70293     -218752.73      0             -218260.34      1178.6104    
     90700   335.02932     -218748.2       0             -218256.81      380.30772    
     90800   337.37622     -218744.52      0             -218249.69     -598.44165    
     90900   335.00956     -218739.41      0             -218248.05     -1422.0086    
     91000   333.39701     -218745.85      0             -218256.86      32.975358    
     91100   332.30468     -218748.19      0             -218260.79      185.67796    
     91200   334.79775     -218751.77      0             -218260.71      447.91535    
     91300   332.35221     -218745.26      0             -218257.8      -29.945171    
     91400   337.53782     -218745.79      0             -218250.71      349.79349    
     91500   334.56392     -218738.27      0             -218247.56      1009.0125    
     91600   339.50924     -218754.67      0             -218256.71      1265.9781    
     91700   334.49987     -218753.69      0             -218263.07     -363.30602    
     91800   337.7533      -218757.22      0             -218261.83     -960.78072    
     91900   337.39304     -218751.25      0             -218256.39      87.559705    
     92000   332.19474     -218738.8       0             -218251.57      866.67308    
     92100   335.08981     -218742.29      0             -218250.81     -536.17631    
     92200   339.06744     -218758.68      0             -218261.37      1211.5656    
     92300   334.26529     -218754.78      0             -218264.51      1099.884     
     92400   336.98121     -218753.39      0             -218259.13      445.58374    
     92500   334.73062     -218745.53      0             -218254.57     -208.73157    
     92600   336.61581     -218746.7       0             -218252.98     -817.18741    
     92700   334.54952     -218747.48      0             -218256.79      839.60626    
     92800   332.27697     -218756.36      0             -218269        -324.2872     
     92900   332.3389      -218754.61      0             -218267.17     -601.33578    
     93000   333.82158     -218749.81      0             -218260.19      814.9328     
     93100   335.19433     -218746.59      0             -218254.96     -124.50099    
     93200   336.00875     -218747.02      0             -218254.19      210.52623    
     93300   336.72359     -218752.17      0             -218258.29      928.83811    
     93400   329.82642     -218752.12      0             -218268.36      764.08936    
     93500   334.71426     -218757.3       0             -218266.37      863.96778    
     93600   335.7449      -218751.71      0             -218259.27     -86.031642    
     93700   334.82888     -218747.11      0             -218256.01      248.40613    
     93800   335.00506     -218747.7       0             -218256.35     -36.645034    
     93900   335.7096      -218749.68      0             -218257.29     -596.58783    
     94000   334.36803     -218751.28      0             -218260.86      878.77233    
     94100   335.42389     -218757         0             -218265.03      409.92425    
     94200   331.83333     -218752.03      0             -218265.33     -179.73687    
     94300   335.51585     -218748.82      0             -218256.71      980.87973    
     94400   335.31913     -218744.72      0             -218252.9       455.8507     
     94500   337.80237     -218749.41      0             -218253.95      599.95973    
     94600   333.9911      -218748.58      0             -218258.71      1052.0688    
     94700   331.25248     -218754.01      0             -218268.16      16.387488    
     94800   329.97743     -218756.95      0             -218272.96      13.226665    
     94900   333.31645     -218756.55      0             -218267.67      1821.2489    
     95000   335.41553     -218752.1       0             -218260.15     -256.51413    
     95100   336.9681      -218749.47      0             -218255.24     -247.2185     
     95200   336.71466     -218748.34      0             -218254.47      613.44064    
     95300   336.70331     -218751.53      0             -218257.68      425.32969    
     95400   329.88902     -218750.73      0             -218266.88     -735.54348    
     95500   329.8391      -218751.73      0             -218267.95      517.81033    
     95600   334.8566      -218752.53      0             -218261.39      90.841088    
     95700   331.28299     -218744.02      0             -218258.12     -133.35777    
     95800   332.5271      -218744.6       0             -218256.88      258.22187    
     95900   336.22489     -218749.51      0             -218256.36      715.71558    
     96000   334.49959     -218751.53      0             -218260.92      1078.1507    
     96100   331.76742     -218753.73      0             -218267.12      46.894694    
     96200   330.958       -218751.08      0             -218265.66      1038.9208    
     96300   335.84835     -218748.39      0             -218255.79      331.52708    
     96400   335.92279     -218745.86      0             -218253.16     -260.42113    
     96500   337.00744     -218750.31      0             -218256.01      509.69859    
     96600   332.30064     -218748.81      0             -218261.42     -146.95582    
     96700   336.08702     -218755.75      0             -218262.8       526.66495    
     96800   332.63517     -218746.99      0             -218259.11     -1044.1286    
     96900   334.51258     -218741.06      0             -218250.43      203.89185    
     97000   340.54976     -218749.84      0             -218250.35      161.53717    
     97100   332.82246     -218745.83      0             -218257.67      871.86651    
     97200   335.37961     -218753.09      0             -218261.18      785.286      
     97300   335.44571     -218753.68      0             -218261.68      382.59861    
     97400   334.18035     -218748         0             -218257.85      635.62314    
     97500   340.16791     -218745.36      0             -218246.43     -1141.3826    
     97600   337.31643     -218740.52      0             -218245.78      646.85323    
     97700   336.77564     -218746.36      0             -218252.41     -98.383926    
     97800   331.6005      -218744.3       0             -218257.94     -459.36438    
     97900   336.76477     -218755.29      0             -218261.35      95.985921    
     98000   335.14763     -218751.46      0             -218259.89      390.85364    
     98100   338.02494     -218746.63      0             -218250.85      936.98995    
     98200   337.41523     -218743.19      0             -218248.29      374.37518    
     98300   334.7168      -218743.38      0             -218252.44      195.8486     
     98400   333.93375     -218745.25      0             -218255.46      149.68196    
     98500   332.7935      -218746.43      0             -218258.32      32.748814    
     98600   333.23435     -218749.46      0             -218260.7      -613.3452     
     98700   328.86563     -218746.63      0             -218264.28      832.90757    
     98800   331.21003     -218751.52      0             -218265.73      813.01781    
     98900   334.53908     -218751.03      0             -218260.36      38.792554    
     99000   334.23469     -218744.05      0             -218253.83      938.53421    
     99100   334.79236     -218743.56      0             -218252.52     -389.08514    
     99200   334.03938     -218748.1       0             -218258.16      380.77716    
     99300   335.38668     -218757.62      0             -218265.7      -418.55716    
     99400   330.89607     -218749.53      0             -218264.2      -678.05004    
     99500   334.88593     -218749.71      0             -218258.52      116.92619    
     99600   337.11544     -218749.54      0             -218255.09     -147.97733    
     99700   337.22596     -218750.01      0             -218255.39      843.17131    
     99800   333.98612     -218752         0             -218262.14      436.70957    
     99900   328.39857     -218752.49      0             -218270.82      491.57422    
    100000   334.49382     -218757.15      0             -218266.54     -215.38698    
    100100   333.01309     -218748.72      0             -218260.29      1423.7933    
    100200   332.91511     -218744.66      0             -218256.37      635.01782    
    100300   337.65208     -218750.98      0             -218255.74      559.52133    
    100400   336.70218     -218751.8       0             -218257.96      15.172854    
    100500   333.25974     -218756.35      0             -218267.56      522.07792    
    100600   331.48241     -218756.05      0             -218269.86     -579.90466    
    100700   331.68288     -218749.53      0             -218263.05     -93.30703     
    100800   334.52605     -218748.92      0             -218258.26      151.60691    
    100900   335.69655     -218747.86      0             -218255.49      48.670152    
    101000   334.43268     -218746.02      0             -218255.5      -2499.1724    
    101100   336.03493     -218753.25      0             -218260.38     -551.53066    
    101200   331.58197     -218753.3       0             -218266.96      127.85196    
    101300   331.80635     -218749.83      0             -218263.17     -871.60892    
    101400   335.56533     -218748.02      0             -218255.84     -343.9832     
    101500   334.84772     -218745.57      0             -218254.45      864.24241    
    101600   335.98071     -218749.14      0             -218256.35      218.566      
    101700   332.45244     -218750.2       0             -218262.58      487.36493    
    101800   330.22377     -218750.35      0             -218266.01      1326.5944    
    101900   335.39287     -218753.69      0             -218261.76      303.07634    
    102000   331.20387     -218745.85      0             -218260.07     -669.33173    
    102100   334.42723     -218747.41      0             -218256.9       560.23522    
    102200   333.41099     -218743.42      0             -218254.4      -768.75955    
    102300   334.46051     -218745.64      0             -218255.08     -1108.9369    
    102400   328.32686     -218742.68      0             -218261.12     -1638.856     
    102500   331.36876     -218751.6       0             -218265.58      88.595956    
    102600   334.12507     -218750.8       0             -218260.73      414.89541    
    102700   335.32269     -218742.94      0             -218251.12      172.36678    
    102800   339.04024     -218749.53      0             -218252.25     -112.73505    
    102900   333.00708     -218746.75      0             -218258.32      486.33414    
    103000   337.33732     -218756.01      0             -218261.23      1121.7158    
    103100   331.86017     -218748.31      0             -218261.57     -412.04338    
    103200   335.27457     -218749.92      0             -218258.16      234.78609    
    103300   337.0471      -218744.99      0             -218250.64      1041.2092    
    103400   342.70942     -218744.32      0             -218241.66      55.728741    
    103500   338.24762     -218744.38      0             -218248.27     -352.76182    
    103600   336.65439     -218749.07      0             -218255.29      259.40362    
    103700   329.78298     -218743.77      0             -218260.07      364.48059    
    103800   330.00254     -218747.15      0             -218263.13     -691.19892    
    103900   332.27846     -218746.32      0             -218258.96      656.1014     
    104000   336.89164     -218743.31      0             -218249.19     -300.24438    
    104100   335.18456     -218742.22      0             -218250.6       130.50072    
    104200   335.76762     -218748.24      0             -218255.76      6.2349719    
    104300   334.30433     -218750.04      0             -218259.71     -1137.9445    
    104400   332.17443     -218747.63      0             -218260.42      1000.0485    
    104500   336.02557     -218752.57      0             -218259.71      784.86903    
    104600   333.13407     -218745.38      0             -218256.77     -535.5426     
    104700   332.93298     -218744.22      0             -218255.9       392.23967    
    104800   334.36241     -218746.8       0             -218256.39     -293.67379    
    104900   334.43594     -218747.88      0             -218257.36     -207.19244    
    105000   336.61783     -218752.52      0             -218258.79     -97.69673     
    105100   330.90402     -218746.56      0             -218261.22      687.7088     
    105200   331.67924     -218748.55      0             -218262.07      531.74809    
    105300   330.30519     -218742.24      0             -218257.78      794.13915    
    105400   335.58072     -218743.8       0             -218251.6       448.96608    
    105500   335.8594      -218744.4       0             -218251.79      735.13232    
    105600   335.6719      -218753.96      0             -218261.62      685.29404    
    105700   332.66842     -218753.07      0             -218265.14      998.02443    
    105800   331.07735     -218747.83      0             -218262.24      1791.2996    
    105900   337.31997     -218750.69      0             -218255.94      92.35966     
    106000   335.18125     -218746.51      0             -218254.9       564.5138     
    106100   334.94899     -218747.6       0             -218256.32      178.42769    
    106200   337.85006     -218753.54      0             -218258.01     -367.25939    
    106300   331.7763      -218751.3       0             -218264.68      783.24096    
    106400   333.39899     -218763.98      0             -218274.98      736.18484    
    106500   333.18488     -218759.45      0             -218270.77      141.39967    
    106600   332.91046     -218752.63      0             -218264.35      1108.2543    
    106700   336.75819     -218751.95      0             -218258.02     -878.68163    
    106800   337.10946     -218750.35      0             -218255.91      335.51553    
    106900   338.64046     -218754.67      0             -218257.98      128.33975    
    107000   332.43621     -218753.27      0             -218265.68     -289.45681    
    107100   335.29143     -218761.16      0             -218269.39     -284.26916    
    107200   331.39773     -218750.03      0             -218263.97      361.46055    
    107300   336.36235     -218751.27      0             -218257.92     -205.31063    
    107400   333.7562      -218747.42      0             -218257.9       515.82742    
    107500   333.26552     -218748         0             -218259.19      454.09301    
    107600   335.61311     -218754.73      0             -218262.48     -782.42438    
    107700   331.63761     -218752.92      0             -218266.5      -452.43422    
    107800   330.77299     -218750.55      0             -218265.4      -92.743874    
    107900   338.75264     -218752.73      0             -218255.88     -75.830642    
    108000   337.1688      -218748.28      0             -218253.75      208.4937     
    108100   339.37984     -218754         0             -218256.22     -166.45268    
    108200   333.99471     -218753.69      0             -218263.82      220.64648    
    108300   331.73923     -218754.83      0             -218268.27      260.84305    
    108400   333.16078     -218754.65      0             -218266         560.59525    
    108500   335.36679     -218753.87      0             -218261.98      645.85361    
    108600   337.83697     -218752.23      0             -218256.72      448.44972    
    108700   336.95303     -218748.02      0             -218253.8      -4.2227026    
    108800   337.64501     -218751.63      0             -218256.41      340.5296     
    108900   334.91541     -218757.39      0             -218266.17      566.16505    
    109000   332.09456     -218753.68      0             -218266.59     -600.97808    
    109100   333.79951     -218750.47      0             -218260.88      291.86413    
    109200   332.89762     -218745.09      0             -218256.83     -673.78158    
    109300   338.31438     -218752.15      0             -218255.94     -515.83577    
    109400   333.28209     -218746.55      0             -218257.72      1120.1117    
    109500   335.53417     -218750.88      0             -218258.75      1116.2221    
    109600   337.2397      -218755.83      0             -218261.2       564.19354    
    109700   333.84112     -218758.51      0             -218268.86      890.1081     
    109800   332.37907     -218757.39      0             -218269.88      336.53077    
    109900   332.71565     -218749.05      0             -218261.05      374.03837    
    110000   334.30568     -218747.16      0             -218256.83     -487.09916    
    110100   332.2175      -218744.75      0             -218257.48      27.923537    
    110200   337.41998     -218754.68      0             -218259.78     -156.72496    
    110300   328.60755     -218749.36      0             -218267.39     -46.96193     
    110400   331.74226     -218756.69      0             -218270.11      171.73933    
    110500   333.3222      -218749.28      0             -218260.39      74.276042    
    110600   334.05109     -218746.59      0             -218256.64     -974.07564    
    110700   334.32719     -218746.8       0             -218256.44      97.518899    
    110800   334.68238     -218751.06      0             -218260.17     -189.23165    
    110900   330.68652     -218750.36      0             -218265.33     -160.06875    
    111000   328.6447      -218748.11      0             -218266.08      602.30405    
    111100   338.27308     -218751.56      0             -218255.41      312.47082    
    111200   336.93234     -218747.16      0             -218252.98      311.51177    
    111300   335.52019     -218748.97      0             -218256.86     -706.94509    
    111400   336.44857     -218755.89      0             -218262.41      793.23026    
    111500   333.67966     -218756.24      0             -218266.83     -179.18756    
    111600   330.15267     -218751.12      0             -218266.88     -432.78938    
    111700   335.42193     -218750.57      0             -218258.6       920.74389    
    111800   336.39466     -218747.07      0             -218253.67      574.42643    
    111900   335.70452     -218746.75      0             -218254.36      905.94214    
    112000   335.16327     -218753.07      0             -218261.48      139.14841    
    112100   332.54502     -218753.71      0             -218265.96      1762.5251    
    112200   333.48141     -218753.08      0             -218263.96      1127.8477    
    112300   332.6523      -218747.31      0             -218259.4       158.46498    
    112400   334.85651     -218748.74      0             -218257.6      -593.25725    
    112500   333.12059     -218747.44      0             -218258.85      189.24125    
    112600   337.40309     -218755.33      0             -218260.45      288.17323    
    112700   333.7052      -218749.66      0             -218260.21     -486.36388    
    112800   337.06427     -218749.59      0             -218255.21     -606.58627    
    112900   340.67534     -218750.96      0             -218251.29     -158.10085    
    113000   333.48306     -218745.31      0             -218256.18      95.449488    
    113100   331.41558     -218750.43      0             -218264.34      1411.7855    
    113200   333.20515     -218752.91      0             -218264.19     -153.01248    
    113300   332.93518     -218748.68      0             -218260.36      636.33564    
    113400   338.45101     -218752.7       0             -218256.29      338.63893    
    113500   334.82739     -218748.21      0             -218257.12     -135.34682    
    113600   337.04016     -218752.07      0             -218257.73     -814.58678    
    113700   334.81301     -218750.84      0             -218259.77      2155.127     
    113800   335.4223      -218751.78      0             -218259.81      231.66423    
    113900   334.04405     -218750.98      0             -218261.03     -799.50803    
    114000   332.41716     -218746.51      0             -218258.95     -61.534003    
    114100   338.22193     -218751.28      0             -218255.21     -176.97023    
    114200   336.66789     -218747.79      0             -218253.99      360.34826    
    114300   334.10506     -218749.72      0             -218259.68      472.676      
    114400   333.31227     -218755.23      0             -218266.35      1388.2313    
    114500   333.83167     -218755.3       0             -218265.66     -789.34203    
    114600   333.63226     -218747.79      0             -218258.45     -256.82967    
    114700   337.81932     -218751.3       0             -218255.82     -450.00664    
    114800   340.33728     -218757.65      0             -218258.47     -292.23785    
    114900   331.73285     -218748.27      0             -218261.71      600.7348     
    115000   334.06508     -218752.6       0             -218262.62      87.299776    
    115100   335.5896      -218752.6       0             -218260.38     -361.68266    
    115200   333.13365     -218742.75      0             -218254.13     -1000.6923    
    115300   336.52571     -218744.68      0             -218251.1      -552.42734    
    115400   337.05202     -218752         0             -218257.64      246.57641    
    115500   334.24115     -218754.95      0             -218264.71     -183.17655    
    115600   332.13774     -218751.47      0             -218264.32      895.91042    
    115700   332.40236     -218747.31      0             -218259.77      503.07053    
    115800   337.97207     -218749.53      0             -218253.82      23.620933    
    115900   340.38789     -218752.57      0             -218253.32      225.51239    
    116000   334.58659     -218746.03      0             -218255.29     -68.37746     
    116100   336.16583     -218750.55      0             -218257.49      367.8029     
    116200   334.61219     -218751.26      0             -218260.48     -96.343937    
    116300   333.3888      -218752.93      0             -218263.95      288.47372    
    116400   332.50356     -218752.92      0             -218265.23      332.34728    
    116500   336.90157     -218754.76      0             -218260.62     -476.74144    
    116600   335.40365     -218745.36      0             -218253.42      180.73774    
    116700   336.60339     -218746.72      0             -218253.01      72.938989    
    116800   335.46245     -218752.35      0             -218260.32     -526.03132    
    116900   334.02687     -218756.56      0             -218266.64      358.36482    
    117000   334.81727     -218754.9       0             -218263.82      859.05206    
    117100   335.62796     -218751.38      0             -218259.11     -390.45456    
    117200   337.30597     -218749.34      0             -218254.6      -605.87394    
    117300   335.66747     -218747.96      0             -218255.63      576.71617    
    117400   333.15898     -218750.41      0             -218261.76     -64.743751    
    117500   330.43368     -218758.3       0             -218273.65      590.19558    
    117600   333.56185     -218760.12      0             -218270.88      502.11252    
    117700   335.39546     -218754.93      0             -218263        -354.96334    
    117800   334.87667     -218748.7       0             -218257.53     -323.47807    
    117900   335.75218     -218746.83      0             -218254.38     -302.19725    
    118000   336.05521     -218748.36      0             -218255.46     -392.97418    
    118100   330.423       -218750.15      0             -218265.52      302.37785    
    118200   333.36931     -218756.25      0             -218267.29      178.58579    
    118300   332.98662     -218752.8       0             -218264.4      -1459.6782    
    118400   334.93342     -218749.08      0             -218257.83     -462.78192    
    118500   335.72007     -218749.32      0             -218256.91     -601.72509    
    118600   338.96662     -218754.47      0             -218257.3      -783.66748    
    118700   334.26462     -218752.16      0             -218261.89      427.38526    
    118800   333.02888     -218755.16      0             -218266.7       286.25659    
    118900   332.1443      -218759.58      0             -218272.42     -212.93731    
    119000   335.71749     -218762.85      0             -218270.45      920.1553     
    119100   335.57783     -218752.74      0             -218260.54      658.93384    
    119200   333.67121     -218746.81      0             -218257.41     -65.711061    
    119300   338.96868     -218753.99      0             -218256.82     -184.34594    
    119400   330.80642     -218746.87      0             -218261.67      158.94941    
    119500   331.38264     -218754.48      0             -218268.44     -290.19389    
    119600   335.10702     -218760.52      0             -218269.01     -799.88253    
    119700   334.11124     -218747.04      0             -218257        -1078.7509    
    119800   333.97538     -218744.29      0             -218254.44     -403.79958    
    119900   337.66752     -218752.69      0             -218257.43     -75.260325    
    120000   331.51946     -218750.18      0             -218263.94     -169.28874    
    120100   333.33603     -218755.05      0             -218266.14     -145.76594    
    120200   333.77629     -218751.2       0             -218261.65     -898.15437    
    120300   335.47401     -218743.85      0             -218251.8       187.87566    
    120400   337.67076     -218748.62      0             -218253.35      148.5656     
    120500   335.62115     -218753.69      0             -218261.43     -72.975844    
    120600   331.10673     -218749.76      0             -218264.12     -332.02705    
    120700   335.45774     -218753.11      0             -218261.09      958.92162    
    120800   336.80307     -218749.81      0             -218255.81      1259.5174    
    120900   337.52031     -218743.12      0             -218248.07     -248.48979    
    121000   339.68785     -218740.32      0             -218242.09     -80.037781    
    121100   336.86328     -218745.69      0             -218251.6      -525.0717     
    121200   337.00868     -218750.98      0             -218256.68      287.76492    
    121300   334.45206     -218751.56      0             -218261.01      892.15872    
    121400   333.90483     -218754.47      0             -218264.73     -220.0059     
    121500   334.18529     -218754.29      0             -218264.14      407.26823    
    121600   337.54551     -218751.59      0             -218256.51      49.845023    
    121700   338.58708     -218747.27      0             -218250.66      1026.1649    
    121800   340.00303     -218751.51      0             -218252.82      481.51001    
    121900   336.33005     -218753.45      0             -218260.15     -169.60786    
    122000   335.10649     -218753.75      0             -218262.24     -42.031828    
    122100   334.08281     -218751.92      0             -218261.91     -364.25166    
    122200   336.86238     -218753.6       0             -218259.52     -695.23654    
    122300   337.06004     -218747.99      0             -218253.62      304.90266    
    122400   340.76497     -218750.79      0             -218250.98      713.12098    
    122500   337.96068     -218754.31      0             -218258.62      260.93578    
    122600   333.03698     -218753.87      0             -218265.4      -19.306907    
    122700   334.36458     -218755.38      0             -218264.96      39.615112    
    122800   330.91272     -218744.13      0             -218258.78      306.11685    
    122900   335.79386     -218746.73      0             -218254.21     -844.08831    
    123000   337.04969     -218749.58      0             -218255.22     -1262.8812    
    123100   337.21133     -218752.98      0             -218258.39     -148.44544    
    123200   334.91467     -218752.87      0             -218261.65      737.39423    
    123300   334.36106     -218754.12      0             -218263.71      844.97195    
    123400   332.76616     -218758.48      0             -218270.41      60.174937    
    123500   329.7565      -218756.16      0             -218272.5       635.51342    
    123600   335.57423     -218755.35      0             -218263.16     -603.88392    
    123700   336.30262     -218751.64      0             -218258.38     -278.60863    
    123800   336.44406     -218749.82      0             -218256.35     -1272.9741    
    123900   333.6847      -218745.48      0             -218256.06     -500.67237    
    124000   333.40983     -218752.73      0             -218263.71      260.90174    
    124100   332.03612     -218755.4       0             -218268.4      -472.27762    
    124200   332.28274     -218751.39      0             -218264.03     -318.65333    
    124300   334.76971     -218747.78      0             -218256.77     -526.63719    
    124400   335.44237     -218749.43      0             -218257.43      257.88772    
    124500   333.7633      -218749.5       0             -218259.97      410.61752    
    124600   335.25877     -218753.35      0             -218261.62      1039.7762    
    124700   334.83441     -218754.77      0             -218263.66      349.10564    
    124800   335.83313     -218756.13      0             -218263.55     -214.25365    
    124900   334.98862     -218752.5       0             -218261.16      15.433183    
    125000   336.01498     -218747.91      0             -218255.07      365.44355    
    125100   335.67003     -218743.02      0             -218250.69     -824.29077    
    125200   339.40124     -218753.15      0             -218255.34     -731.39784    
    125300   331.4044      -218750.91      0             -218264.83     -122.2554     
    125400   333.07209     -218752.11      0             -218263.59      815.65531    
    125500   338.29252     -218754.33      0             -218258.15      264.98149    
    125600   336.85418     -218748.51      0             -218254.44     -158.59124    
    125700   333.36955     -218743.96      0             -218255.01      716.78008    
    125800   334.81913     -218755.21      0             -218264.13     -1300.4661    
    125900   330.41633     -218753.04      0             -218268.42     -471.29277    
    126000   330.99304     -218749.05      0             -218263.58      361.45239    
    126100   334.85771     -218747.99      0             -218256.85     -351.43463    
    126200   336.05458     -218749         0             -218256.1       1097.4241    
    126300   335.80346     -218751.08      0             -218258.55      49.269586    
    126400   332.4598      -218750.02      0             -218262.4       396.99106    
    126500   337.25533     -218761.34      0             -218266.68     -13.021311    
    126600   329.48332     -218758.38      0             -218275.12      744.04424    
    126700   330.36595     -218755.94      0             -218271.38     -556.59173    
    126800   334.20595     -218752.51      0             -218262.33      167.89585    
    126900   336.04467     -218750.77      0             -218257.88      832.38251    
    127000   335.51031     -218748.39      0             -218256.29     -211.18936    
    127100   337.93677     -218754.18      0             -218258.53     -1749.8134    
    127200   333.31015     -218755.74      0             -218266.87      44.814572    
    127300   331.99723     -218755.75      0             -218268.8       305.54324    
    127400   334.87562     -218752.6       0             -218261.43      88.05852     
    127500   332.88762     -218746.64      0             -218258.39      420.60307    
    127600   337.20053     -218753.1       0             -218258.52      1242.4373    
    127700   335.89852     -218754.11      0             -218261.44      645.49254    
    127800   333.53838     -218753.61      0             -218264.41      1206.6173    
    127900   330.97106     -218754.66      0             -218269.22     -740.18749    
    128000   331.53861     -218755.46      0             -218269.19      369.58716    
    128100   338.03245     -218755.56      0             -218259.77     -285.6047     
    128200   337.7636      -218751.23      0             -218255.82      474.51781    
    128300   332.77677     -218745.37      0             -218257.28     -367.36376    
    128400   335.53039     -218753.32      0             -218261.19      580.12319    
    128500   329.85254     -218754.29      0             -218270.49     -868.62264    
    128600   332.77516     -218756.87      0             -218268.79      427.92369    
    128700   331.22625     -218749.77      0             -218263.96     -186.76332    
    128800   335.65333     -218753.04      0             -218260.73     -427.27091    
    128900   336.25636     -218752.36      0             -218259.16     -126.34966    
    129000   334.14817     -218748.84      0             -218258.74      784.18137    
    129100   334.1356      -218749.23      0             -218259.15      1257.2446    
    129200   332.82349     -218748.83      0             -218260.67      219.96348    
    129300   333.61984     -218751.64      0             -218262.32     -267.03385    
    129400   333.06102     -218749.84      0             -218261.33     -269.82405    
    129500   337.9032      -218752.09      0             -218256.48     -54.299536    
    129600   335.93516     -218744.04      0             -218251.32     -219.11578    
    129700   336.70175     -218745.95      0             -218252.1      -1101.293     
    129800   336.56266     -218756.74      0             -218263.09     -76.720563    
    129900   331.20927     -218751.97      0             -218266.18      924.10422    
    130000   335.84134     -218755.11      0             -218262.53     -332.66703    
    130100   338.34898     -218751.99      0             -218255.73      333.08295    
    130200   338.95714     -218751.72      0             -218254.57      391.15705    
    130300   340.12562     -218756.1       0             -218257.23      86.4681      
    130400   337.63104     -218754.24      0             -218259.03      544.52097    
    130500   335.04653     -218750.83      0             -218259.41      1116.3377    
    130600   334.11062     -218750.81      0             -218260.77      742.23032    
    130700   332.93337     -218752.73      0             -218264.42     -164.04926    
    130800   331.81658     -218755.78      0             -218269.1      -599.42287    
    130900   333.88307     -218755.53      0             -218265.82      156.47718    
    131000   336.37326     -218750.51      0             -218257.15      1553.4833    
    131100   336.65768     -218749.74      0             -218255.96      76.701448    
    131200   332.08382     -218745.84      0             -218258.77      1109.0076    
    131300   329.81323     -218748.85      0             -218265.11     -1300.9411    
    131400   333.08761     -218761.64      0             -218273.1      -338.72985    
    131500   330.90816     -218755.96      0             -218270.61      165.70248    
    131600   334.64265     -218751.12      0             -218260.29     -288.35621    
    131700   335.66851     -218751.89      0             -218259.56      109.36329    
    131800   336.3164      -218752.04      0             -218258.76      1287.8866    
    131900   336.895       -218754.91      0             -218260.78      98.950406    
    132000   332.58364     -218753.15      0             -218265.35      460.22945    
    132100   332.36291     -218756.46      0             -218268.98     -27.656431    
    132200   331.34656     -218749.92      0             -218263.93     -610.98694    
    132300   338.55411     -218751.6       0             -218255.04      1181.3287    
    132400   336.95239     -218749.9       0             -218255.68      534.65632    
    132500   332.61883     -218748.66      0             -218260.8      -1591.1647    
    132600   331.95478     -218751.95      0             -218265.07     -1450.603     
    132700   334.49045     -218761.74      0             -218271.14     -320.95718    
    132800   333.37878     -218762.92      0             -218273.95      175.32814    
    132900   332.91915     -218752.91      0             -218264.61      6.6073061    
    133000   336.08342     -218751.45      0             -218258.51     -258.27541    
    133100   334.58751     -218747.61      0             -218256.86      39.912872    
    133200   335.04259     -218749.61      0             -218258.2      -253.73904    
    133300   334.4591      -218755.23      0             -218264.67     -550.93838    
    133400   327.10043     -218749.18      0             -218269.42     -426.03216    
    133500   333.62939     -218752.85      0             -218263.52      448.9491     
    133600   339.09478     -218751.45      0             -218254.1       578.39366    
    133700   336.02532     -218747.74      0             -218254.89      1014.6536    
    133800   335.05355     -218751.05      0             -218259.62     -924.44752    
    133900   333.43573     -218754.69      0             -218265.64     -1783.0769    
    134000   330.21809     -218749.99      0             -218265.65      53.534594    
    134100   337.07924     -218749.35      0             -218254.95      230.30112    
    134200   337.04998     -218746.48      0             -218252.12     -984.25554    
    134300   334.73298     -218747.67      0             -218256.71      100.93312    
    134400   333.86679     -218750.81      0             -218261.12     -138.00747    
    134500   337.36144     -218759.79      0             -218264.98     -590.68815    
    134600   331.3825      -218756.83      0             -218270.78      421.54006    
    134700   330.29221     -218756.97      0             -218272.52     -491.14947    
    134800   337.60145     -218757.08      0             -218261.92      760.67556    
    134900   337.10004     -218751.23      0             -218256.8       257.946      
    135000   335.73184     -218748.3       0             -218255.87     -244.41467    
    135100   333.82169     -218747.21      0             -218257.59     -715.20388    
    135200   335.42198     -218757.56      0             -218265.6      -1070.9166    
    135300   333.34659     -218758.19      0             -218269.26      619.36033    
    135400   329.20554     -218746.9       0             -218264.05      723.30572    
    135500   336.35717     -218752.37      0             -218259.03      681.0751     
    135600   334.8246      -218750.15      0             -218259.06     -17.293136    
    135700   333.02649     -218747.32      0             -218258.86     -359.75524    
    135800   337.60941     -218753.48      0             -218258.3      -827.88476    
    135900   333.9471      -218746.45      0             -218256.65     -1262.2607    
    136000   333.39871     -218747.47      0             -218258.47     -431.53923    
    136100   332.35548     -218751.26      0             -218263.79     -824.68214    
    136200   332.4917      -218754.84      0             -218267.17     -642.49951    
    136300   330.47543     -218747.59      0             -218262.87     -717.45368    
    136400   334.35877     -218743.96      0             -218253.55     -145.08388    
    136500   334.48875     -218744.79      0             -218254.19     -927.69095    
    136600   337.05368     -218753.11      0             -218258.74     -346.09984    
    136700   331.21695     -218750.91      0             -218265.11      1223.7196    
    136800   332.61835     -218759.11      0             -218271.26      1019.4764    
    136900   329.79782     -218759.79      0             -218276.07      298.35406    
    137000   333.22807     -218756.81      0             -218268.06     -357.68346    
    137100   336.6464      -218753.69      0             -218259.93      452.32288    
    137200   336.90592     -218750.71      0             -218256.57     -11.966858    
    137300   336.83721     -218749.77      0             -218255.72     -569.83797    
    137400   333.85644     -218748.1       0             -218258.42      267.85935    
    137500   333.81489     -218755.22      0             -218265.61     -954.80163    
    137600   332.7734      -218757.3       0             -218269.22     -124.40126    
    137700   338.90694     -218759.24      0             -218262.16      782.76411    
    137800   334.74279     -218747.07      0             -218256.1       427.64271    
    137900   334.30464     -218747.81      0             -218257.48     -432.82527    
    138000   335.5211      -218752.34      0             -218260.22      249.20442    
    138100   332.87047     -218754.58      0             -218266.35      784.62346    
    138200   331.2155      -218754.67      0             -218268.87      1402.0712    
    138300   334.5975      -218750.88      0             -218260.12     -256.70231    
    138400   338.62427     -218750.44      0             -218253.78     -835.36709    
    138500   336.97828     -218749.17      0             -218254.91      261.51198    
    138600   332.82988     -218749.92      0             -218261.75     -108.33292    
    138700   333.85313     -218755.85      0             -218266.18     -113.12436    
    138800   332.81727     -218753.13      0             -218264.98     -131.00799    
    138900   330.77079     -218747.11      0             -218261.96      177.66661    
    139000   335.12517     -218751.51      0             -218259.98      1010.6554    
    139100   336.96313     -218752.81      0             -218258.58     -553.9199     
    139200   337.57586     -218752.9       0             -218257.77      182.82142    
    139300   335.65958     -218749.5       0             -218257.19     -374.75965    
    139400   337.61076     -218755.52      0             -218260.34      546.76952    
    139500   335.09371     -218756.7       0             -218265.22      100.85215    
    139600   332.44305     -218755.99      0             -218268.39      695.69387    
    139700   336.90126     -218755.7       0             -218261.56     -782.1519     
    139800   336.49403     -218747.96      0             -218254.42     -594.8479     
    139900   337.2318      -218750.28      0             -218255.66      1140.7961    
    140000   333.10957     -218749.32      0             -218260.75     -149.61789    
    140100   333.3664      -218752.79      0             -218263.84     -442.80902    
    140200   331.50424     -218755.05      0             -218268.83     -287.57348    
    140300   325.93012     -218752.44      0             -218274.39     -480.95387    
    140400   330.86535     -218752.67      0             -218267.38     -428.88972    
    140500   332.13682     -218747.42      0             -218260.27     -613.32588    
    140600   335.79227     -218749.81      0             -218257.3      -368.74496    
    140700   334.12484     -218746.32      0             -218256.25     -138.19623    
    140800   334.38406     -218750.51      0             -218260.07     -91.91469     
    140900   333.03286     -218757.22      0             -218268.76      799.29147    
    141000   331.53079     -218754.2       0             -218267.94      410.53811    
    141100   336.87835     -218755.89      0             -218261.78      1189.8412    
    141200   331.86036     -218746.38      0             -218259.63      655.46718    
    141300   337.27961     -218752.59      0             -218257.9      -1068.9234    
    141400   335.51333     -218750.43      0             -218258.33     -1071.6666    
    141500   336.01253     -218758.37      0             -218265.53     -236.26353    
    141600   332.62155     -218758.6       0             -218270.74     -616.68721    
    141700   330.51722     -218750.02      0             -218265.24      477.63611    
    141800   334.98888     -218749.44      0             -218258.1       121.29431    
    141900   338.91813     -218754.86      0             -218257.76     -334.50764    
    142000   335.51564     -218751.12      0             -218259.01     -262.87383    
    142100   337.62636     -218755.22      0             -218260.02     -1716.3609    
    142200   330.81688     -218749.65      0             -218264.44     -150.41748    
    142300   332.18038     -218753.13      0             -218265.92     -300.58261    
    142400   333.31233     -218748.82      0             -218259.95      184.36664    
    142500   337.6334      -218748.61      0             -218253.4      -540.74433    
    142600   337.07965     -218749.9       0             -218255.5       93.615703    
    142700   335.867       -218752.67      0             -218260.05      80.776618    
    142800   334.4298      -218751.67      0             -218261.15      1136.3954    
    142900   334.12827     -218751.1       0             -218261.03      1510.015     
    143000   336.84411     -218753.31      0             -218259.26      532.03079    
    143100   336.66631     -218749.64      0             -218255.84      121.14728    
    143200   337.30702     -218743.13      0             -218248.39     -1542.2618    
    143300   335.74555     -218740.66      0             -218248.22      884.92397    
    143400   332.67983     -218746.8       0             -218258.86      569.33192    
    143500   334.75756     -218752         0             -218261        -199.71457    
    143600   335.42241     -218753.07      0             -218261.11     -417.58838    
    143700   334.2587      -218748.69      0             -218258.43     -356.59929    
    143800   335.63883     -218746.02      0             -218253.74      612.22891    
    143900   340.06616     -218748.44      0             -218249.66      281.38873    
    144000   335.18318     -218748.53      0             -218256.92      1006.6299    
    144100   334.94527     -218754.1       0             -218262.83      807.30608    
    144200   333.09976     -218751.69      0             -218263.13      26.108712    
    144300   333.54085     -218749.18      0             -218259.97      136.92366    
    144400   336.65599     -218746.46      0             -218252.68      163.10465    
    144500   340.05073     -218746.65      0             -218247.9      -160.58062    
    144600   337.09127     -218749.69      0             -218255.27     -814.28123    
    144700   334.9359      -218750.34      0             -218259.08      691.50082    
    144800   334.0046      -218749.81      0             -218259.92      587.81405    
    144900   333.39676     -218749.34      0             -218260.34     -415.68408    
    145000   334.01072     -218749.44      0             -218259.55     -373.26562    
    145100   334.13714     -218749.23      0             -218259.14      429.66394    
    145200   336.68243     -218750.79      0             -218256.98      50.133676    
    145300   333.51582     -218746.02      0             -218256.84      198.98001    
    145400   334.98268     -218752.4       0             -218261.08      328.33237    
    145500   332.39436     -218755.18      0             -218267.66      1455.5151    
    145600   336.08322     -218760.2       0             -218267.26      399.81286    
    145700   335.17731     -218748.11      0             -218256.5      -1.6523544    
    145800   337.89886     -218749.93      0             -218254.33     -90.898956    
    145900   336.42149     -218750.56      0             -218257.13     -1015.0192    
    146000   333.71738     -218752.35      0             -218262.88     -724.4589     
    146100   331.79461     -218752.56      0             -218265.91     -907.22694    
    146200   333.92559     -218750.83      0             -218261.05     -993.25232    
    146300   333.47092     -218740.83      0             -218251.72     -354.21366    
    146400   337.29125     -218748.6       0             -218253.89      268.89361    
    146500   337.23582     -218754.93      0             -218260.3      -534.89297    
    146600   333.18418     -218754.02      0             -218265.34     -117.77496    
    146700   330.53899     -218749.07      0             -218264.26     -326.68701    
    146800   332.09645     -218747.61      0             -218260.52      534.05067    
    146900   336.77433     -218753.38      0             -218259.43      476.19291    
    147000   335.53584     -218751.4       0             -218259.26      153.67734    
    147100   335.28743     -218749.9       0             -218258.13     -305.86264    
    147200   335.34825     -218745.7       0             -218253.84      47.640511    
    147300   341.56973     -218752.67      0             -218251.68      264.14472    
    147400   333.14536     -218746.87      0             -218258.24      876.85525    
    147500   335.09145     -218756.1       0             -218264.62     -176.38787    
    147600   332.28814     -218750.9       0             -218263.52     -99.290789    
    147700   336.14761     -218752.9       0             -218259.86     -866.97046    
    147800   340.25002     -218754.63      0             -218255.58     -653.25892    
    147900   334.47299     -218738.34      0             -218247.76      676.58865    
    148000   338.36221     -218738.61      0             -218242.33     -522.66628    
    148100   336.68061     -218745.76      0             -218251.95      180.5067     
    148200   336.99123     -218752.9       0             -218258.63     -104.55737    
    148300   332.28573     -218751.24      0             -218263.87      549.72873    
    148400   335.22984     -218756.12      0             -218264.44     -176.32266    
    148500   337.02586     -218753.27      0             -218258.95     -140.9149     
    148600   338.50948     -218747.82      0             -218251.32      630.26164    
    148700   333.02279     -218740.47      0             -218252.02      813.97159    
    148800   332.35593     -218744.59      0             -218257.12     -661.26521    
    148900   332.7557      -218747.26      0             -218259.2       221.00985    
    149000   334.85004     -218751.37      0             -218260.24     -112.46394    
    149100   333.21589     -218750.22      0             -218261.48      18.880967    
    149200   334.06719     -218748.3       0             -218258.32      871.19771    
    149300   336.42881     -218745.11      0             -218251.67      729.7711     
    149400   337.00064     -218745.63      0             -218251.35      1211.7829    
    149500   338.46347     -218757.28      0             -218260.85      1452.0833    
    149600   331.628       -218750.61      0             -218264.2       978.67402    
    149700   333.73017     -218751.74      0             -218262.26      597.07874    
    149800   331.65975     -218744.89      0             -218258.44     -345.16305    
    149900   334.91871     -218742.12      0             -218250.89     -584.60178    
    150000   339.72906     -218744.6       0             -218246.31     -501.29045    
    150100   333.80531     -218747.6       0             -218258.01      16.629305    
    150200   333.56945     -218752.18      0             -218262.93     -46.250787    
    150300   336.23597     -218755.05      0             -218261.89     -959.84243    
    150400   334.55165     -218749.28      0             -218258.59      199.27137    
    150500   338.11693     -218749.93      0             -218254.01      659.8777     
    150600   334.83287     -218743.51      0             -218252.41     -246.22934    
    150700   334.8908      -218750.86      0             -218259.67     -195.58774    
    150800   330.15703     -218750.48      0             -218266.23      364.26511    
    150900   330.88978     -218749.97      0             -218264.65      500.16256    
    151000   333.36157     -218747.36      0             -218258.41      951.565      
    151100   335.13155     -218745.54      0             -218253.99      1075.6463    
    151200   337.92001     -218750.41      0             -218254.78      387.75192    
    151300   332.94306     -218746.57      0             -218258.24      522.63474    
    151400   334.09777     -218751         0             -218260.97     -1005.6784    
    151500   334.72703     -218753.34      0             -218262.39      176.16594    
    151600   335.35916     -218755.84      0             -218263.97      145.69219    
    151700   330.56903     -218747.23      0             -218262.38      1330.2398    
    151800   334.87498     -218746.97      0             -218255.81      185.03224    
    151900   334.47862     -218744.49      0             -218253.91     -1089.9504    
    152000   335.23305     -218750.73      0             -218259.04      448.58411    
    152100   333.97271     -218757.68      0             -218267.84     -22.914971    
    152200   331.92448     -218754.73      0             -218267.89      1260.5258    
    152300   333.65604     -218752.31      0             -218262.93      175.52541    
    152400   335.86477     -218752.36      0             -218259.75      456.18257    
    152500   335.66472     -218750.98      0             -218258.66      644.07085    
    152600   335.10022     -218751.55      0             -218260.05      511.81024    
    152700   332.61751     -218754.64      0             -218266.78     -233.60339    
    152800   331.94449     -218758.11      0             -218271.24      48.239021    
    152900   333.80906     -218753.31      0             -218263.71      898.91897    
    153000   337.75417     -218754.38      0             -218258.99      820.99986    
    153100   334.1726      -218747.67      0             -218257.53      1052.709     
    153200   335.42381     -218748.67      0             -218256.7       684.07778    
    153300   334.52686     -218751.88      0             -218261.22     -256.71455    
    153400   332.14791     -218755.7       0             -218268.53      638.47263    
    153500   331.5071      -218751.93      0             -218265.71      20.720678    
    153600   335.92632     -218751.43      0             -218258.72     -155.75908    
    153700   336.34508     -218748.93      0             -218255.61      1162.7888    
    153800   334.63247     -218747.77      0             -218256.96     -184.37294    
    153900   337.54622     -218755.21      0             -218260.13      184.59865    
    154000   335.81329     -218756.2       0             -218263.66     -677.56099    
    154100   330.85227     -218755.85      0             -218270.58      934.26026    
    154200   327.3204      -218757.18      0             -218277.1       1290.3338    
    154300   335.11319     -218760.52      0             -218269         884.79183    
    154400   336.41158     -218756.11      0             -218262.69      1412.8059    
    154500   339.02895     -218755.51      0             -218258.25     -419.55889    
    154600   337.27417     -218749.91      0             -218255.22     -340.43647    
    154700   338.05514     -218753.05      0             -218257.22      274.99182    
    154800   335.14553     -218756.97      0             -218265.41      226.05167    
    154900   333.90597     -218758.37      0             -218268.63     -505.50583    
    155000   331.63482     -218751.11      0             -218264.69      645.0663     
    155100   334.8339      -218750.72      0             -218259.62     -385.40032    
    155200   337.90032     -218754.37      0             -218258.77     -109.73892    
    155300   336.48528     -218753.65      0             -218260.13     -176.09847    
    155400   329.91475     -218747.77      0             -218263.88     -252.58062    
    155500   334.90462     -218758.08      0             -218266.87      1115.354     
    155600   333.18947     -218751.74      0             -218263.05      627.12471    
    155700   333.83324     -218745.08      0             -218255.44      543.2576     
    155800   336.11511     -218745.78      0             -218252.79      776.14817    
    155900   334.74941     -218749.28      0             -218258.3       662.42735    
    156000   334.85516     -218756.45      0             -218265.31     -357.30268    
    156100   332.99828     -218752.36      0             -218263.95      276.67923    
    156200   337.25337     -218754.79      0             -218260.14     -357.29414    
    156300   336.04928     -218749.77      0             -218256.88     -1255.4895    
    156400   336.33802     -218747.48      0             -218254.17     -510.07417    
    156500   337.83004     -218749.83      0             -218254.33     -628.37301    
    156600   331.98958     -218748.09      0             -218261.15      232.23494    
    156700   331.72015     -218753.3       0             -218266.76      1090.7342    
    156800   332.68238     -218753.18      0             -218265.23     -300.36067    
    156900   335.17794     -218749.13      0             -218257.52      495.70581    
    157000   339.54803     -218751.12      0             -218253.1      -304.50865    
    157100   333.09884     -218743.83      0             -218255.27      981.29318    
    157200   335.57804     -218751.25      0             -218259.05      583.99261    
    157300   334.05443     -218753.69      0             -218263.72      1155.9066    
    157400   333.19594     -218751.99      0             -218263.29      996.77378    
    157500   338.41628     -218750.67      0             -218254.31     -352.77328    
    157600   341.03762     -218749.4       0             -218249.2      -1261.9181    
    157700   339.55264     -218752.67      0             -218254.64     -124.14228    
    157800   334.73106     -218750.73      0             -218259.77      643.24476    
    157900   335.64688     -218755.24      0             -218262.94      289.59372    
    158000   333.25291     -218752.05      0             -218263.27      161.33558    
    158100   333.68735     -218750.41      0             -218260.99     -53.007977    
    158200   336.91413     -218754.36      0             -218260.2       347.47724    
    158300   335.55614     -218752.72      0             -218260.56      66.893745    
    158400   339.79455     -218758.13      0             -218259.75      525.49576    
    158500   334.90393     -218750.46      0             -218259.25     -848.74386    
    158600   331.01721     -218744.87      0             -218259.36     -402.33417    
    158700   338.10899     -218754.75      0             -218258.84      856.59562    
    158800   333.03441     -218749.77      0             -218261.31      1252.9432    
    158900   333.81809     -218753.27      0             -218263.66      452.41982    
    159000   337.37506     -218756.38      0             -218261.54      191.63821    
    159100   338.08094     -218752.41      0             -218256.54      668.44034    
    159200   338.10789     -218748.17      0             -218252.26      43.382872    
    159300   338.59123     -218750.39      0             -218253.77      199.51651    
    159400   335.2145      -218755.46      0             -218263.8      -745.47102    
    159500   333.10702     -218754.11      0             -218265.54     -82.281601    
    159600   333.13545     -218750.08      0             -218261.47      200.93938    
    159700   335.96265     -218748.46      0             -218255.7       897.18456    
    159800   334.40303     -218745.93      0             -218255.46      570.44602    
    159900   334.7357      -218756.49      0             -218265.53     -132.8148     
    160000   332.24625     -218757.5       0             -218270.19     -795.84432    
    160100   332.6024      -218751.42      0             -218263.59      533.81284    
    160200   336.08112     -218750.68      0             -218257.75      930.77323    
    160300   336.72035     -218750.07      0             -218256.19     -1014.8595    
    160400   335.82018     -218751.92      0             -218259.36      637.29208    
    160500   333.24005     -218758         0             -218269.23      317.44797    
    160600   332.00389     -218756.14      0             -218269.19     -199.89073    
    160700   333.76029     -218754.07      0             -218264.54      700.41644    
    160800   333.57414     -218750.1       0             -218260.84      298.16424    
    160900   335.16413     -218751.43      0             -218259.84     -327.15582    
    161000   339.63211     -218756.52      0             -218258.37     -199.48997    
    161100   334.34562     -218749.4       0             -218259.01      599.68469    
    161200   333.78474     -218752.83      0             -218263.27     -630.28591    
    161300   329.90142     -218751.52      0             -218267.65     -423.97142    
    161400   331.9302      -218752.48      0             -218265.64     -718.46876    
    161500   338.87111     -218754.02      0             -218256.99      448.48604    
    161600   335.78204     -218746.53      0             -218254.03      1343.8224    
    161700   340.37328     -218755.63      0             -218256.4       499.38404    
    161800   335.21265     -218752.87      0             -218261.21      439.32627    
    161900   333.38844     -218752.23      0             -218263.24      107.49938    
    162000   335.95238     -218754.03      0             -218261.28     -186.39924    
    162100   335.30068     -218752.21      0             -218260.42      107.817      
    162200   339.92785     -218757.22      0             -218258.65      877.01668    
    162300   335.24606     -218753.18      0             -218261.47      599.39644    
    162400   333.10213     -218755.51      0             -218266.94      696.26151    
    162500   334.29443     -218756.34      0             -218266.02      424.2508     
    162600   335.87226     -218751.37      0             -218258.74      1228.2663    
    162700   337.08747     -218748.68      0             -218254.27     -40.520538    
    162800   340.10933     -218753.64      0             -218254.8      -455.71485    
    162900   329.9933      -218746.16      0             -218262.16     -27.728369    
    163000   335.03726     -218762.27      0             -218270.87     -587.19082    
    163100   333.80099     -218756.98      0             -218267.39     -176.79282    
    163200   337.82532     -218755.27      0             -218259.77      170.58936    
    163300   339.29657     -218754.04      0             -218256.39      464.68727    
    163400   332.67159     -218746.8       0             -218258.87      411.43204    
    163500   330.60241     -218750.72      0             -218265.82     -226.91938    
    163600   331.03434     -218758.83      0             -218273.3      -29.985659    
    163700   335.08778     -218761         0             -218269.52      1164.3372    
    163800   334.81009     -218750.66      0             -218259.59      378.1165     
    163900   337.12893     -218752.18      0             -218257.71      527.46896    
    164000   337.35365     -218752.15      0             -218257.35     -572.90791    
    164100   332.67217     -218747.32      0             -218259.39     -411.09703    
    164200   335.51355     -218755.45      0             -218263.35     -340.86293    
    164300   331.50365     -218753.62      0             -218267.4      -631.35625    
    164400   332.32204     -218754.53      0             -218267.11     -874.52831    
    164500   337.55556     -218753.14      0             -218258.04      1057.7054    
    164600   335.50575     -218747.24      0             -218255.15     -181.40562    
    164700   337.62952     -218752.64      0             -218257.43      336.83714    
    164800   335.3691      -218758.18      0             -218266.29      1185.7293    
    164900   331.04245     -218754.72      0             -218269.17      933.21847    
    165000   334.6241      -218756.64      0             -218265.84      663.39154    
    165100   334.23632     -218750.91      0             -218260.68      1169.2367    
    165200   336.79044     -218750.55      0             -218256.57      368.97435    
    165300   333.51052     -218746.46      0             -218257.29      54.705177    
    165400   332.90404     -218754.14      0             -218265.86      65.248222    
    165500   328.51257     -218753.64      0             -218271.81      683.32333    
    165600   332.84029     -218754.21      0             -218266.03      630.70814    
    165700   334.16279     -218750.56      0             -218260.44      397.90001    
    165800   335.58071     -218749.99      0             -218257.78     -455.49459    
    165900   332.62166     -218744.95      0             -218257.09      70.485332    
    166000   336.84753     -218755.83      0             -218261.77      811.17073    
    166100   333.09617     -218757.08      0             -218268.52     -227.52087    
    166200   333.70324     -218756.86      0             -218267.41     -0.85172808   
    166300   335.36625     -218750.81      0             -218258.93      432.87032    
    166400   336.59669     -218749.92      0             -218256.23      481.93302    
    166500   335.06561     -218750.01      0             -218258.56      647.44387    
    166600   335.43072     -218753.86      0             -218261.88      1464.6575    
    166700   333.44537     -218755.29      0             -218266.22      33.581378    
    166800   330.09903     -218756.82      0             -218272.66      142.58572    
    166900   331.26403     -218754.84      0             -218268.97     -204.27539    
    167000   334.02017     -218749.97      0             -218260.05     -927.9763     
    167100   334.91583     -218748.91      0             -218257.69     -358.52315    
    167200   333.98834     -218745.76      0             -218255.89     -850.74227    
    167300   333.64039     -218747.32      0             -218257.97     -2.9998341    
    167400   328.36255     -218748.25      0             -218266.63      275.43893    
    167500   334.08949     -218758.95      0             -218268.93      540.37424    
    167600   333.81149     -218752.52      0             -218262.92     -801.93583    
    167700   338.5169      -218755.2       0             -218258.69      280.15823    
    167800   334.49152     -218749.82      0             -218259.22      531.04736    
    167900   332.03616     -218747.81      0             -218260.81     -59.371937    
    168000   332.61285     -218752.55      0             -218264.7       403.90016    
    168100   330.76965     -218756.57      0             -218271.43      155.94483    
    168200   331.7592      -218755.67      0             -218269.07     -647.03879    
    168300   332.88343     -218747         0             -218258.75     -1562.521     
    168400   328.45        -218738.43      0             -218256.68     -598.78343    
    168500   337.55428     -218753.32      0             -218258.23     -361.15612    
    168600   331.6045      -218750.69      0             -218264.32      346.53257    
    168700   330.82656     -218754.83      0             -218269.6       414.27401    
    168800   337.27276     -218759.01      0             -218264.32      427.84613    
    168900   335.52712     -218747.44      0             -218255.32      972.51347    
    169000   334.51517     -218746.63      0             -218256         1212.4378    
    169100   336.23718     -218754.27      0             -218261.1       835.87103    
    169200   330.46504     -218751.92      0             -218267.22      354.23851    
    169300   331.55232     -218754.15      0             -218267.86     -143.12581    
    169400   334.10254     -218749.51      0             -218259.48     -653.15667    
    169500   339.36465     -218752.85      0             -218255.1       178.6421     
    169600   336.70673     -218753.02      0             -218259.17     -3.3543322    
    169700   331.42818     -218749.71      0             -218263.59     -466.74685    
    169800   331.24736     -218750.43      0             -218264.58     -31.38496     
    169900   338.8361      -218757.09      0             -218260.11     -178.43942    
    170000   334.03278     -218744.01      0             -218254.07      345.47436    
    170100   339.92573     -218750.39      0             -218251.82      577.0222     
    170200   330.42333     -218745.49      0             -218260.85      777.03927    
    170300   334.7585      -218754.2       0             -218263.2       954.56262    
    170400   333.02206     -218750.54      0             -218262.09      902.75654    
    170500   338.14464     -218755.69      0             -218259.73      481.73957    
    170600   335.21961     -218747.7       0             -218256.03      155.21885    
    170700   340.14042     -218751.99      0             -218253.11      527.61273    
    170800   337.23832     -218750.95      0             -218256.32      298.17627    
    170900   332.38095     -218752.69      0             -218265.18      119.1366     
    171000   334.68127     -218756.43      0             -218265.55     -605.30082    
    171100   333.8861      -218751.69      0             -218261.97     -541.8009     
    171200   339.3719      -218750.54      0             -218252.78      439.08529    
    171300   340.0981      -218751.03      0             -218252.21      1143.9031    
    171400   336.87547     -218750.12      0             -218256.02     -385.24028    
    171500   336.54232     -218754.79      0             -218261.18      510.03541    
    171600   333.74721     -218752.64      0             -218263.13      1062.8022    
    171700   331.09663     -218747.92      0             -218262.3       549.40935    
    171800   339.40381     -218750.26      0             -218252.46      469.92999    
    171900   337.10691     -218743.32      0             -218248.88      1204.6573    
    172000   336.71413     -218748.22      0             -218254.35      753.47956    
    172100   336.85849     -218753.01      0             -218258.94     -282.03153    
    172200   335.86246     -218753.94      0             -218261.33     -581.16261    
    172300   333.09017     -218750.31      0             -218261.76     -13.54617     
    172400   335.00907     -218751.18      0             -218259.81     -80.941586    
    172500   337.82243     -218748.41      0             -218252.92     -85.161469    
    172600   334.13162     -218741.85      0             -218251.78     -398.31395    
    172700   332.85169     -218747.88      0             -218259.68      343.53999    
    172800   332.76217     -218752.71      0             -218264.64      1552.2679    
    172900   333.72286     -218752.17      0             -218262.69      1401.1512    
    173000   333.44567     -218748.91      0             -218259.84     -325.44959    
    173100   340.17335     -218751.95      0             -218253.01      1654.6955    
    173200   340.91737     -218744.92      0             -218244.89      819.71177    
    173300   339.2013      -218748.46      0             -218250.95     -400.50739    
    173400   336.14876     -218753.16      0             -218260.13     -231.32523    
    173500   335.41472     -218754.47      0             -218262.52      234.48947    
    173600   333.91403     -218753.23      0             -218263.47     -197.57131    
    173700   332.42362     -218749.27      0             -218261.7       494.58771    
    173800   334.67137     -218747.29      0             -218256.42     -252.12973    
    173900   333.78404     -218742.05      0             -218252.49     -152.67437    
    174000   334.41432     -218744.74      0             -218254.25     -647.54616    
    174100   332.24558     -218751.36      0             -218264.05      184.47976    
    174200   333.08325     -218754.91      0             -218266.37     -198.05895    
    174300   333.43522     -218751.87      0             -218262.82      67.250026    
    174400   334.74483     -218747.02      0             -218256.04      373.66501    
    174500   334.07652     -218741.15      0             -218251.16      451.99899    
    174600   341.19185     -218749.51      0             -218249.08      894.13393    
    174700   332.01046     -218744         0             -218257.04     -396.90792    
    174800   337.91164     -218759.66      0             -218264.04      1160.0133    
    174900   330.18256     -218750.59      0             -218266.31      946.84749    
    175000   335.29706     -218752.64      0             -218260.85      1533.0102    
    175100   336.14094     -218747.53      0             -218254.5      -180.75561    
    175200   336.19593     -218747.05      0             -218253.95     -156.82154    
    175300   335.53022     -218749.74      0             -218257.61      612.29269    
    175400   333.47584     -218748.66      0             -218259.55      617.36277    
    175500   335.5261      -218753.06      0             -218260.94     -430.79069    
    175600   337.03457     -218755.82      0             -218261.49     -120.92773    
    175700   334.11131     -218750.68      0             -218260.63      124.12774    
    175800   336.48989     -218748.39      0             -218254.86      91.048655    
    175900   334.39832     -218743.18      0             -218252.71     -149.97868    
    176000   336.5754      -218752.15      0             -218258.49     -505.86892    
    176100   334.66118     -218757.38      0             -218266.53     -61.869547    
    176200   332.76966     -218754.21      0             -218266.13     -76.846612    
    176300   332.77231     -218749.42      0             -218261.34      560.87284    
    176400   337.97754     -218753.59      0             -218257.87      1106.6214    
    176500   336.38903     -218751.86      0             -218258.48     -141.10643    
    176600   333.72281     -218748.99      0             -218259.51     -11.215983    
    176700   334.98518     -218750.68      0             -218259.36      1384.6667    
    176800   337.42185     -218755.34      0             -218260.43      645.29952    
    176900   334.24302     -218755.1       0             -218264.86     -295.75795    
    177000   333.01542     -218759.88      0             -218271.44     -318.05458    
    177100   330.99124     -218755.47      0             -218270         1230.8791    
    177200   334.91999     -218751.05      0             -218259.81     -312.55649    
    177300   333.86911     -218746.73      0             -218257.04      468.16929    
    177400   338.30337     -218753.06      0             -218256.87      670.93442    
    177500   334.56667     -218753.9       0             -218263.19     -522.28049    
    177600   334.97217     -218760.36      0             -218269.05     -65.729928    
    177700   333.53576     -218755.72      0             -218266.52      482.30829    
    177800   333.26202     -218743.53      0             -218254.73      715.1812     
    177900   333.28175     -218742.32      0             -218253.49      433.33004    
    178000   336.95068     -218751.9       0             -218257.69     -94.065549    
    178100   331.27239     -218750.11      0             -218264.23     -119.73654    
    178200   331.45406     -218750.19      0             -218264.05     -884.73637    
    178300   334.96292     -218749.64      0             -218258.34     -785.94018    
    178400   336.47383     -218741.45      0             -218247.94      237.663      
    178500   336.626       -218744.88      0             -218251.14      736.04346    
    178600   336.9454      -218752.49      0             -218258.29      97.66519     
    178700   333.843       -218751.48      0             -218261.83      301.8975     
    178800   334.94856     -218755.03      0             -218263.76      754.21442    
    178900   334.46924     -218753.23      0             -218262.65     -1257.3625    
    179000   339.15811     -218752.19      0             -218254.74      707.13267    
    179100   335.30825     -218743.76      0             -218251.96     -13.185183    
    179200   333.07743     -218746.9       0             -218258.37      121.00566    
    179300   332.03754     -218752.01      0             -218265.01     -712.78866    
    179400   331.90785     -218751.49      0             -218264.67     -295.86212    
    179500   336.04813     -218753.19      0             -218260.3       1497.4754    
    179600   336.40641     -218750.85      0             -218257.44      1067.2933    
    179700   337.81536     -218751.85      0             -218256.37     -317.98335    
    179800   333.24584     -218749.49      0             -218260.71      858.26752    
    179900   332.19367     -218753.34      0             -218266.1       823.43734    
    180000   333.58671     -218756.18      0             -218266.91     -330.02865    
    180100   332.22502     -218748.69      0             -218261.41     -570.84544    
    180200   340.09399     -218752.83      0             -218254.01      569.17245    
    180300   337.45516     -218749.94      0             -218254.99     -951.17825    
    180400   331.30928     -218745.09      0             -218259.16     -636.99867    
    180500   335.18697     -218753.06      0             -218261.44     -351.06474    
    180600   336.77541     -218754.73      0             -218260.78     -699.70627    
    180700   334.95847     -218751.49      0             -218260.21      4.9478404    
    180800   338.36705     -218756.12      0             -218259.84     -683.59368    
    180900   333.939       -218753.59      0             -218263.8      -530.51804    
    181000   335.16521     -218762.88      0             -218271.29      1078.3856    
    181100   330.9425      -218755.14      0             -218269.74      33.079297    
    181200   335.23938     -218752.25      0             -218260.55      460.25478    
    181300   336.45195     -218751.23      0             -218257.75      146.1199     
    181400   337.24226     -218753.37      0             -218258.73      794.82792    
    181500   332.97311     -218751.11      0             -218262.74      460.7998     
    181600   330.53896     -218753.84      0             -218269.04     -265.72493    
    181700   333.21888     -218761.33      0             -218272.6      -373.91718    
    181800   334.18911     -218754.22      0             -218264.06      828.38064    
    181900   336.72875     -218751.65      0             -218257.77      61.290869    
    182000   333.88147     -218746.35      0             -218256.64      129.52335    
    182100   335.1249      -218751.52      0             -218259.99      252.84379    
    182200   334.41673     -218757.1       0             -218266.61     -986.49605    
    182300   327.08105     -218749.74      0             -218270        -266.27223    
    182400   334.81412     -218753.3       0             -218262.22      426.7591     
    182500   334.75549     -218745.93      0             -218254.94      163.45311    
    182600   336.25539     -218748.5       0             -218255.31      661.01976    
    182700   334.75016     -218752.26      0             -218261.28      107.96644    
    182800   334.73263     -218757.17      0             -218266.21     -470.52995    
    182900   331.04228     -218751.38      0             -218265.84      323.67177    
    183000   337.92402     -218749.03      0             -218253.39      72.798943    
    183100   333.27245     -218741.11      0             -218252.3       420.91725    
    183200   335.45259     -218750.31      0             -218258.3      -542.19875    
    183300   333.81179     -218753.71      0             -218264.1      -957.51442    
    183400   335.40952     -218756.1       0             -218264.15      334.5023     
    183500   335.56917     -218750.66      0             -218258.47      855.57166    
    183600   340.1674      -218747.59      0             -218248.66      221.31083    
    183700   335.3298      -218743.49      0             -218251.66      812.45125    
    183800   335.36368     -218749.62      0             -218257.74      257.9479     
    183900   335.48006     -218753.41      0             -218261.36      571.75997    
    184000   333.91815     -218755.35      0             -218265.58      158.83245    
    184100   331.78761     -218755.63      0             -218268.99      98.433524    
    184200   334.17231     -218756.27      0             -218266.14     -510.88253    
    184300   333.71179     -218747.5       0             -218258.04      106.70532    
    184400   334.17673     -218744.86      0             -218254.71     -103.27923    
    184500   337.93547     -218750.97      0             -218255.32      1425.1212    
    184600   335.91468     -218757.21      0             -218264.52      136.03678    
    184700   333.24324     -218756.56      0             -218267.78      726.20967    
    184800   336.76876     -218757.72      0             -218263.78      139.91861    
    184900   334.77969     -218750.81      0             -218259.78      254.5859     
    185000   334.36159     -218749.3       0             -218258.89      838.93601    
    185100   337.11815     -218752.72      0             -218258.27      443.78154    
    185200   333.97758     -218749.38      0             -218259.53     -40.080264    
    185300   331.40142     -218753.13      0             -218267.06      438.25144    
    185400   329.38166     -218755.92      0             -218272.81      545.28358    
    185500   332.62448     -218755.24      0             -218267.38      939.10255    
    185600   334.27349     -218750.13      0             -218259.84      920.57639    
    185700   337.47335     -218751.24      0             -218256.27      206.2441     
    185800   334.09954     -218748.07      0             -218258.04     -64.010206    
    185900   335.70608     -218757.87      0             -218265.49     -131.40567    
    186000   330.92783     -218755.76      0             -218270.38     -117.24437    
    186100   331.57285     -218752.6       0             -218266.28     -1169.6808    
    186200   332.11599     -218748.3       0             -218261.18     -240.36127    
    186300   334.63408     -218749.51      0             -218258.7       798.4553     
    186400   335.82691     -218750.74      0             -218258.18      395.09263    
    186500   334.86255     -218751.17      0             -218260.02     -438.57524    
    186600   332.43812     -218755.02      0             -218267.43      474.39706    
    186700   332.18314     -218755.85      0             -218268.63      1127.3476    
    186800   337.2252      -218755.37      0             -218260.76     -123.06803    
    186900   334.22231     -218746.71      0             -218256.5      -158.08886    
    187000   333.17997     -218746.83      0             -218258.15      1322.2683    
    187100   333.33854     -218749.44      0             -218260.53      1207.2349    
    187200   336.1703      -218757.21      0             -218264.15      133.89367    
    187300   330.11848     -218756.67      0             -218272.48     -122.89193    
    187400   333.51351     -218758.58      0             -218269.41      1364.6561    
    187500   334.88648     -218752.41      0             -218261.23      1233.172     
    187600   332.64725     -218747.48      0             -218259.58      937.9971     
    187700   338.03987     -218754.69      0             -218258.88     -786.18841    
    187800   333.88398     -218749.07      0             -218259.35     -60.107376    
    187900   329.74576     -218746.94      0             -218263.3      -1574.0215    
    188000   333.12388     -218756.5       0             -218267.9       558.51429    
    188100   329.68862     -218750.86      0             -218267.31      368.69702    
    188200   335.93294     -218750.53      0             -218257.81      833.6597     
    188300   332.32386     -218743.25      0             -218255.83     -44.442305    
    188400   335.85869     -218750.87      0             -218258.26      69.815688    
    188500   332.88695     -218753.65      0             -218265.4       1545.809     
    188600   333.50647     -218759.6       0             -218270.45      617.20026    
    188700   333.05111     -218755.77      0             -218267.28      443.77387    
    188800   335.45748     -218754.88      0             -218262.86      84.561634    
    188900   336.55547     -218752.71      0             -218259.08      818.29069    
    189000   338.28615     -218752.9       0             -218256.73      384.94576    
    189100   337.41984     -218751.96      0             -218257.06      27.254027    
    189200   332.66965     -218753.14      0             -218265.21      221.40943    
    189300   331.92008     -218755.63      0             -218268.8       303.68937    
    189400   332.78023     -218751.9       0             -218263.81      436.30988    
    189500   332.89957     -218745.58      0             -218257.31     -185.59846    
    189600   339.21986     -218754.2       0             -218256.66      11.83436     
    189700   336.98419     -218752.81      0             -218258.55      460.21103    
    189800   334.9635      -218752.47      0             -218261.17      84.980477    
    189900   330.03853     -218750.13      0             -218266.06      403.85866    
    190000   328.02844     -218756.18      0             -218275.05     -285.17155    
    190100   331.56881     -218756.18      0             -218269.87      247.97347    
    190200   336.57056     -218755.73      0             -218262.08     -141.0432     
    190300   335.32511     -218751.06      0             -218259.23     -818.71411    
    190400   337.91128     -218752.74      0             -218257.12     -775.36453    
    190500   333.72169     -218746.56      0             -218257.09      666.31648    
    190600   337.18103     -218757.18      0             -218262.63     -650.84718    
    190700   331.37749     -218754.73      0             -218268.69     -128.62418    
    190800   337.13678     -218760.23      0             -218265.75      496.13519    
    190900   337.68554     -218752.95      0             -218257.66      1181.553     
    191000   337.84386     -218750.77      0             -218255.25      1183.3262    
    191100   334.78366     -218747.49      0             -218256.45      639.62059    
    191200   333.58517     -218749.32      0             -218260.05     -637.84314    
    191300   337.1258      -218758.04      0             -218263.57     -130.73486    
    191400   333.06408     -218758.5       0             -218269.99     -330.1173     
    191500   330.95732     -218760.78      0             -218275.36     -659.59418    
    191600   332.2974      -218754.34      0             -218266.95     -580.3741     
    191700   336.18032     -218752.45      0             -218259.36      838.85442    
    191800   336.29335     -218749.82      0             -218256.58      918.51087    
    191900   333.83509     -218746.1       0             -218256.46      1095.3257    
    192000   332.22956     -218748.33      0             -218261.05      636.09985    
    192100   333.46619     -218757.71      0             -218268.61      232.16459    
    192200   333.59559     -218757.65      0             -218268.36      21.096414    
    192300   335.66466     -218752.86      0             -218260.53      576.08515    
    192400   335.82167     -218750.65      0             -218258.1       620.05534    
    192500   334.11073     -218748.71      0             -218258.66     -415.15244    
    192600   337.60017     -218754.61      0             -218259.45      770.8509     
    192700   333.29512     -218753.55      0             -218264.7       684.06717    
    192800   333.2173      -218757.42      0             -218268.69     -307.13046    
    192900   334.40328     -218756.22      0             -218265.75     -330.57609    
    193000   335.83406     -218748.45      0             -218255.87      287.04043    
    193100   337.78631     -218749.73      0             -218254.29      382.03317    
    193200   337.9328      -218753.36      0             -218257.71      1274.5201    
    193300   332.99127     -218753.51      0             -218265.11      1478.7589    
    193400   330.8715      -218752.9       0             -218267.61      775.42876    
    193500   333.18191     -218751.31      0             -218262.63      1964.1623    
    193600   339.66759     -218749.2       0             -218251.01      340.65349    
    193700   333.83294     -218742.37      0             -218252.73     -179.57413    
    193800   337.77011     -218754.89      0             -218259.48      724.26854    
    193900   330.48107     -218750.04      0             -218265.32     -431.39163    
    194000   333.47587     -218753.74      0             -218264.63      1036.9775    
    194100   336.77664     -218751.59      0             -218257.63     -13.984316    
    194200   336.45182     -218744.77      0             -218251.29     -406.51856    
    194300   335.28934     -218744.45      0             -218252.68     -313.05736    
    194400   333.93019     -218745.84      0             -218256.06     -665.67321    
    194500   335.25416     -218751.61      0             -218259.89      551.44923    
    194600   332.10809     -218750.06      0             -218262.95      951.98997    
    194700   332.06355     -218753.71      0             -218266.67      1269.6729    
    194800   332.37417     -218758.58      0             -218271.08      1439.6936    
    194900   333.06264     -218753.7       0             -218265.19      1101.0393    
    195000   337.53523     -218753.61      0             -218258.54      243.08392    
    195100   337.94306     -218752.39      0             -218256.73      501.12134    
    195200   335.15245     -218748.63      0             -218257.06      590.17677    
    195300   331.41642     -218752.67      0             -218266.57     -434.07275    
    195400   334.25802     -218759.02      0             -218268.76      409.11037    
    195500   334.18979     -218754.11      0             -218263.94      680.19432    
    195600   336.65334     -218753.31      0             -218259.54      226.86894    
    195700   333.55031     -218747.64      0             -218258.41     -104.42246    
    195800   332.78582     -218746.79      0             -218258.68     -347.06271    
    195900   336.08647     -218753.7       0             -218260.76     -1046.8584    
    196000   330.75398     -218754.77      0             -218269.65      22.968021    
    196100   330.13149     -218754.45      0             -218270.25      927.3889     
    196200   333.46789     -218750.72      0             -218261.62      1443.1471    
    196300   334.27817     -218748.54      0             -218258.25     -28.00981     
    196400   335.50347     -218751.23      0             -218259.14      366.23441    
    196500   334.48604     -218751.84      0             -218261.24      732.02762    
    196600   331.05429     -218754.27      0             -218268.71      981.64672    
    196700   331.15733     -218758.75      0             -218273.04      316.65373    
    196800   334.29535     -218753.86      0             -218263.54      408.86749    
    196900   336.04434     -218751.29      0             -218258.4      -871.32727    
    197000   333.58496     -218747.26      0             -218257.99      49.484527    
    197100   337.88435     -218754.2       0             -218258.62     -169.70037    
    197200   335.14111     -218756.3       0             -218264.75      498.55474    
    197300   334.13579     -218758.7       0             -218268.62      426.23975    
    197400   331.95286     -218753.86      0             -218266.98     -409.58194    
    197500   334.9428      -218747.93      0             -218256.66      702.86593    
    197600   333.35869     -218742.56      0             -218253.62      22.719516    
    197700   335.62005     -218748.65      0             -218256.39     -1749.0336    
    197800   334.55154     -218754.79      0             -218264.09      332.54624    
    197900   334.08749     -218755.74      0             -218265.73      424.90108    
    198000   332.70617     -218751.17      0             -218263.18     -125.41583    
    198100   339.39395     -218757.18      0             -218259.38     -421.77949    
    198200   335.38908     -218749.28      0             -218257.36     -31.78593     
    198300   335.1072      -218750.32      0             -218258.82      1119.7762    
    198400   336.37218     -218753.09      0             -218259.73      467.58239    
    198500   334.81674     -218757.5       0             -218266.42      264.10533    
    198600   329.03968     -218758.18      0             -218275.58      178.25869    
    198700   331.18307     -218754.95      0             -218269.2      -386.9385     
    198800   336.02365     -218754.44      0             -218261.59      152.66968    
    198900   337.74567     -218753.23      0             -218257.85      868.71616    
    199000   334.71344     -218748.7       0             -218257.77      1026.9465    
    199100   333.89537     -218751.57      0             -218261.84      1897.6475    
    199200   332.78032     -218757.48      0             -218269.39      1502.1244    
    199300   333.86146     -218757.98      0             -218268.3       344.81163    
    199400   332.87682     -218748.49      0             -218260.25     -228.33811    
    199500   333.88701     -218747         0             -218257.29     -257.10611    
    199600   335.50498     -218750.28      0             -218258.19     -375.02256    
    199700   332.55232     -218750.34      0             -218262.58     -586.74425    
    199800   331.6714      -218752.91      0             -218266.44      900.66979    
    199900   335.86345     -218760.63      0             -218268.01      374.88896    
    200000   332.45858     -218748.72      0             -218261.1       73.300122    
    200100   336.92973     -218748.93      0             -218254.75      1265.1607    
    200200   336.07961     -218748.55      0             -218255.61      955.97213    
    200300   331.99617     -218749.22      0             -218262.28     -118.1162     
    200400   330.95247     -218752.3       0             -218266.89      352.80919    
    200500   334.02858     -218754.61      0             -218264.68      432.48585    
    200600   335.63499     -218754.01      0             -218261.73     -820.40051    
    200700   335.11167     -218750.1       0             -218258.59      347.32504    
    200800   335.78494     -218749.22      0             -218256.72      34.733875    
    200900   335.95152     -218746.64      0             -218253.9       782.90746    
    201000   334.1653      -218745.4       0             -218255.27      492.63084    
    201100   332.1249      -218749.75      0             -218262.62     -244.35625    
    201200   331.84134     -218753.04      0             -218266.32     -265.3732     
    201300   329.72228     -218747.35      0             -218263.74     -15.730823    
    201400   335.87589     -218747.22      0             -218254.58     -833.35822    
    201500   335.94221     -218745.35      0             -218252.61      266.13664    
    201600   336.00734     -218749.29      0             -218256.46     -865.36356    
    201700   333.6362      -218749.81      0             -218260.46      36.936656    
    201800   333.8935      -218754.23      0             -218264.5       466.83676    
    201900   335.27263     -218759.08      0             -218267.34     -445.74268    
    202000   332.20198     -218757.13      0             -218269.89     -158.82187    
    202100   335.40119     -218757.1       0             -218265.16      611.03202    
    202200   333.35869     -218746.73      0             -218257.78      975.43107    
    202300   335.68568     -218747.35      0             -218254.99      253.00742    
    202400   335.50687     -218749.06      0             -218256.96      1188.759     
    202500   331.56275     -218753.21      0             -218266.9       159.97325    
    202600   333.97345     -218758.69      0             -218268.85      429.54704    
    202700   331.97737     -218751.68      0             -218264.77     -1083.2448    
    202800   333.1708      -218748.68      0             -218260.02     -708.99453    
    202900   336.17072     -218750.17      0             -218257.11      505.05212    
    203000   336.02329     -218751.33      0             -218258.48      883.93183    
    203100   333.02039     -218748.88      0             -218260.44      842.76871    
    203200   335.07677     -218752.52      0             -218261.06      845.11778    
    203300   334.51535     -218751.9       0             -218261.26      414.35655    
    203400   334.95993     -218751.57      0             -218260.28      830.49399    
    203500   336.67039     -218750.32      0             -218256.52      940.09606    
    203600   339.86437     -218752.02      0             -218253.54     -480.31659    
    203700   332.80284     -218745.83      0             -218257.7      -943.76923    
    203800   335.58816     -218757.19      0             -218264.98     -420.43555    
    203900   332.76438     -218754.95      0             -218266.88      1091.049     
    204000   338.89143     -218758.63      0             -218261.57      739.56302    
    204100   336.9482      -218752.79      0             -218258.58     -405.21259    
    204200   335.86528     -218750.81      0             -218258.2       981.97063    
    204300   336.39571     -218753.79      0             -218260.39     -833.17433    
    204400   334.58996     -218754.55      0             -218263.8      -79.511435    
    204500   331.07433     -218752.82      0             -218267.23      111.96272    
    204600   333.93469     -218756.46      0             -218266.67     -217.27301    
    204700   337.31543     -218753.72      0             -218258.97      16.113608    
    204800   336.56746     -218747.6       0             -218253.95      386.85913    
    204900   337.18812     -218751.4       0             -218256.84      737.24278    
    205000   333.265       -218752.14      0             -218263.34      1176.0319    
    205100   333.04128     -218755.53      0             -218267.05     -634.48979    
    205200   333.52731     -218754.05      0             -218264.86     -410.06148    
    205300   337.2269      -218744.62      0             -218250.01     -199.43762    
    205400   337.74649     -218745.49      0             -218250.11      335.52651    
    205500   336.34173     -218751.78      0             -218258.47     -391.1584     
    205600   333.93774     -218754.52      0             -218264.73      91.71106     
    205700   334.98023     -218756.68      0             -218265.36      1062.9564    
    205800   333.71716     -218750.61      0             -218261.14     -607.93027    
    205900   333.17162     -218742.67      0             -218254         1082.6394    
    206000   333.09581     -218742.74      0             -218254.19      391.85245    
    206100   331.24819     -218749.54      0             -218263.69     -228.70938    
    206200   329.60273     -218752.19      0             -218268.75     -1237.1859    
    206300   334.02336     -218754.63      0             -218264.71     -783.18303    
    206400   332.32243     -218746.43      0             -218259         570.21255    
    206500   335.32964     -218746.82      0             -218254.99     -414.89896    
    206600   335.55094     -218748.87      0             -218256.71      166.83955    
    206700   332.83295     -218755.87      0             -218267.7      -147.27829    
    206800   334.32617     -218759.6       0             -218269.24      417.41704    
    206900   335.40294     -218756.98      0             -218265.04      207.04873    
    207000   334.02194     -218748.45      0             -218258.54      473.14749    
    207100   334.00838     -218746.22      0             -218256.33     -689.88347    
    207200   331.30184     -218744.54      0             -218258.61      654.08923    
    207300   333.83419     -218751.7       0             -218262.06     -176.74442    
    207400   329.85126     -218754.73      0             -218270.93      201.39771    
    207500   329.22616     -218757.02      0             -218274.13      220.22942    
    207600   333.12504     -218752.53      0             -218263.93     -1293.5837    
    207700   333.93494     -218750.29      0             -218260.51      1621.4034    
    207800   332.93339     -218747.86      0             -218259.54      1098.2599    
    207900   333.91572     -218749.13      0             -218259.37      652.42579    
    208000   333.11357     -218749.96      0             -218261.38      874.029      
    208100   331.92479     -218750.76      0             -218263.92      330.13703    
    208200   334.48006     -218754.75      0             -218264.17     -38.996533    
    208300   333.31318     -218749.73      0             -218260.85      266.31966    
    208400   338.92471     -218750.8       0             -218253.69     -481.24065    
    208500   337.49787     -218747.53      0             -218252.52     -71.530862    
    208600   334.48723     -218750.34      0             -218259.74     -189.22316    
    208700   335.32279     -218758.11      0             -218266.29      101.33069    
    208800   332.86544     -218754.25      0             -218266.03      885.12592    
    208900   333.91459     -218751.7       0             -218261.94     -66.009326    
    209000   334.81787     -218748.8       0             -218257.72      278.73964    
    209100   335.12319     -218749.33      0             -218257.79      1759.3332    
    209200   333.51153     -218755.89      0             -218266.72      476.90743    
    209300   332.64979     -218758.77      0             -218270.86      293.8737     
    209400   329.02385     -218748.31      0             -218265.72     -3.7507588    
    209500   333.09644     -218747.46      0             -218258.9      -434.48522    
    209600   335.01024     -218750.06      0             -218258.7      -445.67987    
    209700   332.75685     -218748.07      0             -218260.01     -523.2134     
    209800   330.03272     -218748.66      0             -218264.6       157.08381    
    209900   328.19013     -218752.51      0             -218271.15     -48.161941    
    210000   335.53759     -218763.13      0             -218270.99     -719.92745    
    210100   337.153       -218754.77      0             -218260.26      596.69122    
    210200   335.34408     -218747.78      0             -218255.93      426.24358    
    210300   336.25585     -218749.78      0             -218256.59     -24.245029    
    210400   334.35697     -218753.53      0             -218263.13      355.93398    
    210500   336.13697     -218759.99      0             -218266.98      560.94368    
    210600   338.63979     -218760.84      0             -218264.15      216.7037     
    210700   337.98255     -218748.53      0             -218252.81      826.89232    
    210800   337.85008     -218748.69      0             -218253.16      1040.0732    
    210900   332.45841     -218747.29      0             -218259.67     -34.553455    
    211000   335.33394     -218756.36      0             -218264.52      625.33466    
    211100   331.47729     -218751.84      0             -218265.66      100.78394    
    211200   332.53655     -218749.97      0             -218262.24      204.25819    
    211300   335.9321      -218743.83      0             -218251.12      730.00376    
    211400   338.72809     -218746.59      0             -218249.78     -217.69893    
    211500   336.00443     -218747.67      0             -218254.85     -417.00764    
    211600   333.43958     -218750.21      0             -218261.15     -373.80802    
    211700   332.2001      -218752.1       0             -218264.86      813.91834    
    211800   330.78111     -218750.55      0             -218265.39      602.93616    
    211900   337.13981     -218750.83      0             -218256.34      1179.7135    
    212000   338.47651     -218749.06      0             -218252.61      1589.107     
    212100   337.04355     -218751.45      0             -218257.11      925.80295    
    212200   335.57178     -218755.08      0             -218262.89     -1176.5773    
    212300   332.66898     -218751.09      0             -218263.16      200.35781    
    212400   333.2542      -218749.32      0             -218260.53      462.00384    
    212500   333.3502      -218747.51      0             -218258.58     -434.46214    
    212600   338.33237     -218754.62      0             -218258.39     -636.97872    
    212700   333.42205     -218748.63      0             -218259.6      -285.16769    
    212800   332.45195     -218749.04      0             -218261.43      788.90564    
    212900   334.1155      -218751.89      0             -218261.84     -217.50973    
    213000   335.79136     -218752.96      0             -218260.45      464.01752    
    213100   334.41201     -218747.94      0             -218257.45      830.44577    
    213200   336.81183     -218750.76      0             -218256.75      28.022577    
    213300   334.99259     -218751.42      0             -218260.08      914.47512    
    213400   335.14781     -218757.68      0             -218266.12      1458.0858    
    213500   334.47853     -218758.22      0             -218267.64     -1229.1326    
    213600   333.79846     -218748.16      0             -218258.57      153.99067    
    213700   338.09036     -218748.94      0             -218253.06     -604.70274    
    213800   337.3134      -218750.25      0             -218255.51      606.22736    
    213900   330.30823     -218746.48      0             -218262.01     -70.123424    
    214000   332.7622      -218753.1       0             -218265.03      64.229227    
    214100   336.70742     -218756.87      0             -218263.01     -165.67073    
    214200   336.80339     -218751.2       0             -218257.21     -141.44928    
    214300   340.39556     -218743.83      0             -218244.57     -787.64831    
    214400   338.32461     -218746.02      0             -218249.79      184.76832    
    214500   335.6794      -218751.2       0             -218258.86     -122.06472    
    214600   333.73742     -218752.64      0             -218263.15     -216.00589    
    214700   332.48856     -218751.73      0             -218264.06      1030.0412    
    214800   335.78732     -218754.04      0             -218261.53      713.38915    
    214900   337.56009     -218748.28      0             -218253.17     -4.4766005    
    215000   337.67729     -218746.88      0             -218251.6      -254.94388    
    215100   336.10233     -218750.45      0             -218257.49     -655.05771    
    215200   336.82305     -218756.03      0             -218262         80.385342    
    215300   338.17474     -218757.14      0             -218261.14      447.1636     
    215400   336.158       -218752.52      0             -218259.48     -272.41917    
    215500   333.98087     -218744.43      0             -218254.58     -237.95678    
    215600   335.85922     -218739.73      0             -218247.12      1113.135     
    215700   340.1709      -218748.36      0             -218249.42     -381.07992    
    215800   336.5929      -218753.57      0             -218259.88      1152.5467    
    215900   335.38327     -218753.19      0             -218261.27      536.33507    
    216000   333.59225     -218751.69      0             -218262.4       372.63362    
    216100   333.06215     -218751.84      0             -218263.34      898.61318    
    216200   330.79743     -218743.72      0             -218258.53      746.7246     
    216300   336.62771     -218745.91      0             -218252.17      97.785598    
    216400   335.49895     -218746.01      0             -218253.93      293.86798    
    216500   335.29233     -218756.78      0             -218265.01     -292.94231    
    216600   333.0502      -218753.98      0             -218265.49     -111.18517    
    216700   332.65739     -218749.88      0             -218261.97     -570.61797    
    216800   333.9169      -218745.47      0             -218255.71     -477.5302     
    216900   333.87072     -218743.59      0             -218253.9       82.507832    
    217000   331.5613      -218745.45      0             -218259.14     -220.157      
    217100   328.96405     -218753.26      0             -218270.77      59.787075    
    217200   333.47207     -218756.32      0             -218267.21      493.4333     
    217300   336.32347     -218753.28      0             -218259.99      1059.83      
    217400   336.23067     -218749.69      0             -218256.53      94.550605    
    217500   337.01898     -218752.41      0             -218258.1       346.7975     
    217600   332.30904     -218753.78      0             -218266.38      412.34877    
    217700   329.63735     -218755.45      0             -218271.97      901.1093     
    217800   332.22733     -218754.91      0             -218267.63      69.302421    
    217900   335.75776     -218755.73      0             -218263.27     -163.02111    
    218000   332.83738     -218747.6       0             -218259.42     -305.03492    
    218100   338.69511     -218752.39      0             -218255.62     -222.16695    
    218200   334.06095     -218745.99      0             -218256.02      670.73303    
    218300   335.70027     -218757.54      0             -218265.17      700.13445    
    218400   328.1555      -218750.49      0             -218269.18      480.92849    
    218500   332.50282     -218751.69      0             -218264.01      522.3443     
    218600   334.00435     -218749.21      0             -218259.32      709.28661    
    218700   337.7195      -218753.6       0             -218258.26      1163.4739    
    218800   335.01132     -218752.19      0             -218260.82      937.69695    
    218900   333.83028     -218753.36      0             -218263.72      928.87731    
    219000   337.09614     -218757.11      0             -218262.68      238.74894    
    219100   336.2929      -218747.46      0             -218254.22      53.950663    
    219200   338.63097     -218748.59      0             -218251.92     -469.53554    
    219300   338.5537      -218754.21      0             -218257.65     -823.10198    
    219400   333.18368     -218753.43      0             -218264.74     -398.05521    
    219500   333.71543     -218753.06      0             -218263.6       462.07523    
    219600   334.45348     -218750.47      0             -218259.92     -446.96938    
    219700   337.64801     -218751.44      0             -218256.21     -711.16841    
    219800   337.10658     -218745.69      0             -218251.25     -584.47225    
    219900   340.58364     -218747.91      0             -218248.37     -470.55893    
    220000   335.39351     -218747.67      0             -218255.74     -14.483123    
    220100   335.48263     -218754.12      0             -218262.06      153.30773    
    220200   332.63275     -218751.62      0             -218263.74      92.744268    
    220300   335.17839     -218754.04      0             -218262.43      801.78244    
    220400   336.98403     -218749.34      0             -218255.08     -116.28389    
    220500   339.60208     -218748.44      0             -218250.34     -344.6981     
    220600   334.08991     -218745.16      0             -218255.15      311.41948    
    220700   331.97375     -218748.36      0             -218261.45     -608.40908    
    220800   335.37922     -218753.12      0             -218261.22     -773.15792    
    220900   336.29265     -218752.38      0             -218259.13      450.46911    
    221000   337.21345     -218751.61      0             -218257.02      15.318058    
    221100   334.85065     -218748.15      0             -218257.02      1016.7019    
    221200   335.00969     -218751.72      0             -218260.35      1884.8401    
    221300   334.09127     -218755.8       0             -218265.78      946.67202    
    221400   330.25406     -218753.5       0             -218269.11      1303.4176    
    221500   336.55544     -218757.88      0             -218264.25      669.92815    
    221600   336.66674     -218749.18      0             -218255.38      625.22092    
    221700   338.06785     -218750.25      0             -218254.4      -236.47397    
    221800   333.55932     -218748.45      0             -218259.21      1150.8802    
    221900   332.26715     -218751.8       0             -218264.45      532.39676    
    222000   330.82432     -218749.57      0             -218264.34     -12.355187    
    222100   338.13984     -218748.11      0             -218252.16      596.66085    
    222200   338.86609     -218747.27      0             -218250.25      67.109539    
    222300   338.14831     -218753.5       0             -218257.54     -338.93409    
    222400   334.91267     -218753.93      0             -218262.71      56.37355     
    222500   335.96784     -218755.1       0             -218262.33      508.99442    
    222600   335.49516     -218752.58      0             -218260.5      -212.90212    
    222700   340.25492     -218750.52      0             -218251.47     -291.87154    
    222800   334.73368     -218742.25      0             -218251.29      1275.8302    
    222900   336.24822     -218751.28      0             -218258.1       1346.9345    
    223000   333.96337     -218751.03      0             -218261.2       410.25229    
    223100   332.22671     -218749.41      0             -218262.13     -189.60922    
    223200   335.24444     -218752.48      0             -218260.77     -477.91793    
    223300   335.28585     -218749.68      0             -218257.91     -429.81369    
    223400   338.02337     -218746.16      0             -218250.38      299.9707     
    223500   339.7038      -218748.89      0             -218250.64      217.19348    
    223600   336.72165     -218752.97      0             -218259.1      -1069.3634    
    223700   336.58438     -218756.35      0             -218262.68     -139.20254    
    223800   330.02288     -218746.59      0             -218262.54     -481.53283    
    223900   340.70756     -218758.26      0             -218258.54      266.41519    
    224000   338.87416     -218748.71      0             -218251.68      343.12311    
    224100   340.3835      -218745         0             -218245.76      410.36248    
    224200   338.65159     -218752.6       0             -218255.9       1214.5309    
    224300   336.12867     -218755.46      0             -218262.45      849.76917    
    224400   332.69929     -218752.15      0             -218264.18      981.51404    
    224500   338.36082     -218756.49      0             -218260.21      72.587309    
    224600   340.24772     -218755.36      0             -218256.31     -1270.095     
    224700   335.46876     -218748.06      0             -218256.03     -849.22902    
    224800   333.38509     -218751.5       0             -218262.52      1124.8352    
    224900   333.50927     -218756.61      0             -218267.45     -376.01383    
    225000   332.91915     -218754.18      0             -218265.89     -636.34146    
    225100   335.72283     -218747.92      0             -218255.51     -967.62984    
    225200   334.57054     -218744.1       0             -218253.38     -371.46401    
    225300   337.48051     -218752.32      0             -218257.34      67.892053    
    225400   335.44447     -218754.44      0             -218262.44     -1300.1633    
    225500   335.75912     -218756.92      0             -218264.46     -1039.7759    
    225600   334.5999      -218752.71      0             -218261.94     -249.62448    
    225700   342.18848     -218751.67      0             -218249.78      281.70716    
    225800   337.43049     -218747.02      0             -218252.11      459.63417    
    225900   336.49004     -218753.32      0             -218259.79      436.48253    
    226000   334.26085     -218753.76      0             -218263.5       970.907      
    226100   331.26515     -218749.89      0             -218264.02      144.65902    
    226200   336.55995     -218750.91      0             -218257.27      709.93199    
    226300   339.01832     -218746.9       0             -218249.66      958.10223    
    226400   335.33172     -218744.64      0             -218252.81     -25.244608    
    226500   337.23303     -218751.55      0             -218256.93      557.42867    
    226600   334.3439      -218752.21      0             -218261.82      169.87684    
    226700   337.8337      -218758.5       0             -218262.99     -817.18962    
    226800   332.56695     -218749.42      0             -218261.64      466.56185    
    226900   336.18938     -218747.25      0             -218254.15      137.54354    
    227000   338.9039      -218748.19      0             -218251.12     -767.30811    
    227100   338.52473     -218754.17      0             -218257.65      1121.4563    
    227200   335.46299     -218756.46      0             -218264.44      750.97348    
    227300   331.94127     -218751.68      0             -218264.82     -268.22784    
    227400   336.42116     -218754.27      0             -218260.84      318.53208    
    227500   336.85925     -218749.24      0             -218255.16     -596.12379    
    227600   334.79527     -218743.06      0             -218252.01     -450.3653     
    227700   337.99315     -218749.33      0             -218253.59     -840.83971    
    227800   333.62365     -218751.21      0             -218261.88     -238.90264    
    227900   332.47468     -218753.7       0             -218266.06     -1408.4008    
    228000   335.4812      -218755.11      0             -218263.05     -1125.5477    
    228100   338.04179     -218751.85      0             -218256.04     -1702.3103    
    228200   335.34537     -218745.65      0             -218253.79     -1806.3237    
    228300   335.28131     -218748.56      0             -218256.79     -260.99994    
    228400   336.32213     -218752.86      0             -218259.57      284.88458    
    228500   334.29483     -218751.14      0             -218260.82      1025.0698    
    228600   335.81679     -218754.14      0             -218261.59      474.72229    
    228700   336.46443     -218756.39      0             -218262.89      711.45692    
    228800   333.24196     -218751.8       0             -218263.03      1264.3433    
    228900   333.87143     -218752.14      0             -218262.44      144.22146    
    229000   336.21642     -218751.87      0             -218258.73     -106.49238    
    229100   338.46512     -218750.28      0             -218253.85     -1174.2723    
    229200   334.37752     -218744.7       0             -218254.26     -1391.9402    
    229300   335.37902     -218755.32      0             -218263.41     -1267.6636    
    229400   330.15749     -218751.86      0             -218267.61     -388.22671    
    229500   336.10204     -218757.33      0             -218264.37     -775.69865    
    229600   334.55433     -218748.76      0             -218258.06      308.51815    
    229700   335.21316     -218747.89      0             -218256.23     -266.67813    
    229800   337.74298     -218753.45      0             -218258.08      637.94107    
    229900   336.58109     -218755.03      0             -218261.36      1118.8913    
    230000   334.14541     -218754.56      0             -218264.46      505.891      
    230100   335.20875     -218754.13      0             -218262.48      892.96236    
    230200   338.58257     -218752.5       0             -218255.89      792.9692     
    230300   333.60797     -218742.27      0             -218252.96     -368.14804    
    230400   334.71132     -218749.04      0             -218258.11     -890.59598    
    230500   336.06425     -218757.95      0             -218265.04     -1276.1177    
    230600   333.90824     -218754.46      0             -218264.72     -290.21435    
    230700   334.14341     -218752.4       0             -218262.31     -235.309      
    230800   335.23077     -218751.72      0             -218260.03      429.91256    
    230900   334.52499     -218750.42      0             -218259.77      1346.4583    
    231000   332.56413     -218749.04      0             -218261.26     -170.43999    
    231100   330.6405      -218754.59      0             -218269.64      1617.3181    
    231200   332.75901     -218758.56      0             -218270.5       809.39761    
    231300   333.43018     -218752.41      0             -218263.36     -11.427497    
    231400   337.08588     -218752.07      0             -218257.66     -260.66117    
    231500   337.52252     -218752.83      0             -218257.78      201.76584    
    231600   335.57789     -218753.5       0             -218261.3       770.68126    
    231700   328.87282     -218753.33      0             -218270.97      90.850547    
    231800   328.89225     -218755.69      0             -218273.3       56.375621    
    231900   332.03147     -218754.5       0             -218267.51     -434.80583    
    232000   336.28515     -218755.68      0             -218262.45      1587.1906    
    232100   333.24345     -218747.65      0             -218258.88     -24.208342    
    232200   335.60421     -218747.89      0             -218255.65     -368.35522    
    232300   338.23998     -218748.83      0             -218252.73      75.654849    
    232400   334.57497     -218750.92      0             -218260.19     -625.83972    
    232500   332.22977     -218753.53      0             -218266.24      366.33043    
    232600   330.22768     -218749.84      0             -218265.49      491.33666    
    232700   334.50721     -218749.72      0             -218259.1       327.19165    
    232800   338.25068     -218750.47      0             -218254.36      566.28098    
    232900   342.19845     -218749.41      0             -218247.5       892.47094    
    233000   339.86538     -218745.65      0             -218247.16      348.31679    
    233100   339.04564     -218754.08      0             -218256.8       298.03305    
    233200   334.79538     -218752.88      0             -218261.83      0.20321505   
    233300   331.73907     -218750.49      0             -218263.93      463.17194    
    233400   334.79781     -218753.21      0             -218262.16      227.88826    
    233500   336.02355     -218747.22      0             -218254.37     -364.86467    
    233600   336.56124     -218747.03      0             -218253.39     -1060.866     
    233700   333.4617      -218751.22      0             -218262.13      657.42474    
    233800   329.62316     -218751         0             -218267.54     -21.926378    
    233900   332.75685     -218753.03      0             -218264.97      1196.3496    
    234000   336.2227      -218752.94      0             -218259.8      -788.1858     
    234100   334.84292     -218746.8       0             -218255.68      410.41602    
    234200   336.60232     -218747.83      0             -218254.13      760.18346    
    234300   337.23043     -218754         0             -218259.38      778.67603    
    234400   332.33157     -218752.98      0             -218265.55      172.83198    
    234500   334.2639      -218757.27      0             -218267        -949.31761    
    234600   337.58291     -218756.93      0             -218261.79      887.69989    
    234700   337.92991     -218750.13      0             -218254.49      817.72214    
    234800   337.40325     -218749.21      0             -218254.34     -646.12121    
    234900   333.77343     -218747.55      0             -218258        -1295.0068    
    235000   335.90011     -218753.49      0             -218260.82     -693.32944    
    235100   333.65394     -218751.03      0             -218261.66      467.28216    
    235200   335.12323     -218752.48      0             -218260.95      464.81062    
    235300   336.72424     -218751.35      0             -218257.47      294.69454    
    235400   339.68704     -218746.75      0             -218248.53      413.79571    
    235500   342.09498     -218751.84      0             -218250.08     -80.925839    
    235600   335.23705     -218750.66      0             -218258.97     -271.56946    
    235700   333.23321     -218750.29      0             -218261.54      895.39897    
    235800   334.2607      -218752.43      0             -218262.17      680.94942    
    235900   330.21148     -218745.85      0             -218261.52      609.48775    
    236000   337.08007     -218751.25      0             -218256.85      613.76962    
    236100   336.45894     -218745.87      0             -218252.38      231.76029    
    236200   337.19903     -218746.84      0             -218252.26      579.94573    
    236300   336.57156     -218755.76      0             -218262.11     -1023.374     
    236400   331.88436     -218752.18      0             -218265.4      -1107.216     
    236500   332.04573     -218750.27      0             -218263.25     -331.34708    
    236600   338.53927     -218753.33      0             -218256.79      1372.0477    
    236700   336.71031     -218745         0             -218251.14     -883.60997    
    236800   334.13944     -218745.45      0             -218255.37      34.61955     
    236900   328.57244     -218749.06      0             -218267.14     -753.55713    
    237000   332.49877     -218753.2       0             -218265.52     -471.39144    
    237100   334.28109     -218748.75      0             -218258.45      661.43239    
    237200   337.18803     -218749.6       0             -218255.04      963.28894    
    237300   335.15484     -218749.01      0             -218257.43      456.93891    
    237400   335.04969     -218757.7       0             -218266.28      42.228804    
    237500   333.71232     -218757.11      0             -218267.65      192.45603    
    237600   335.03434     -218755.63      0             -218264.23      527.14902    
    237700   337.05061     -218754.15      0             -218259.8      -114.38096    
    237800   336.78344     -218751.11      0             -218257.15      756.26193    
    237900   334.62166     -218749.23      0             -218258.44      556.15142    
    238000   331.90423     -218746.79      0             -218259.99     -144.11674    
    238100   333.07193     -218748.84      0             -218260.32      572.71857    
    238200   333.73508     -218749.96      0             -218260.47      511.05987    
    238300   337.31346     -218756.33      0             -218261.58      168.24126    
    238400   333.84275     -218752.67      0             -218263.02     -171.98167    
    238500   336.73579     -218758.22      0             -218264.32      161.40821    
    238600   335.3725      -218754.27      0             -218262.38      582.12448    
    238700   339.20503     -218753.94      0             -218256.42     -849.57977    
    238800   335.74069     -218745.69      0             -218253.25     -819.82188    
    238900   335.18175     -218751.31      0             -218259.69     -975.86678    
    239000   332.20734     -218754.33      0             -218267.08     -135.72251    
    239100   332.40194     -218752.69      0             -218265.15     -540.79797    
    239200   335.70835     -218752.01      0             -218259.62     -636.69829    
    239300   334.46237     -218747.62      0             -218257.06     -686.14267    
    239400   336.06597     -218749.84      0             -218256.93      26.581824    
    239500   331.76936     -218754.16      0             -218267.55      0.067048882  
    239600   332.37669     -218757.68      0             -218270.18      174.47192    
    239700   332.96678     -218751.78      0             -218263.41     -369.0639     
    239800   340.81891     -218757.77      0             -218257.89      340.75021    
    239900   335.69712     -218749.28      0             -218256.91      462.14564    
    240000   339.61048     -218758.26      0             -218260.15     -349.94131    
    240100   332.71062     -218758.33      0             -218270.34      95.77427     
    240200   332.19278     -218757.99      0             -218270.76      860.03713    
    240300   335.66463     -218758.54      0             -218266.22     -624.78791    
    240400   335.7011      -218753.48      0             -218261.1      -496.23462    
    240500   335.24495     -218751.03      0             -218259.32      1146.7761    
    240600   337.35956     -218752.71      0             -218257.9      -456.50706    
    240700   335.12357     -218748.98      0             -218257.45      609.44644    
    240800   334.79945     -218750.56      0             -218259.51      241.85997    
    240900   332.04569     -218751.9       0             -218264.89      33.124531    
    241000   333.26629     -218754.8       0             -218265.99      1434.2785    
    241100   335.13396     -218752.24      0             -218260.69      972.37098    
    241200   334.52027     -218743.75      0             -218253.1       531.04333    
    241300   338.77455     -218749.39      0             -218252.51     -106.15409    
    241400   334.02368     -218746.52      0             -218256.61     -802.80579    
    241500   335.68018     -218751.57      0             -218259.22      368.2247     
    241600   334.62458     -218751.87      0             -218261.07     -305.4431     
    241700   330.24478     -218747.66      0             -218263.29     -576.71423    
    241800   331.166       -218753.24      0             -218267.52      332.26425    
    241900   332.06388     -218755.99      0             -218268.95      547.66196    
    242000   336.6215      -218755.54      0             -218261.82      63.802081    
    242100   335.97482     -218748.77      0             -218255.99      222.67037    
    242200   333.63459     -218746.7       0             -218257.36      155.75275    
    242300   335.01763     -218752.76      0             -218261.39     -776.52414    
    242400   332.72751     -218758.12      0             -218270.1      -721.55877    
    242500   326.66018     -218754         0             -218274.88      91.310269    
    242600   334.83241     -218760.72      0             -218269.62      45.24413     
    242700   336.23573     -218757.52      0             -218264.36     -216.87382    
    242800   332.30761     -218746.95      0             -218259.55     -116.36888    
    242900   336.84331     -218750.93      0             -218256.88      942.75308    
    243000   336.60966     -218752.36      0             -218258.65      282.79744    
    243100   337.156       -218760.6       0             -218266.09     -376.35908    
    243200   332.75124     -218757.47      0             -218269.42     -558.50676    
    243300   333.42904     -218752.51      0             -218263.47     -658.34985    
    243400   337.16162     -218750.69      0             -218256.17     -298.04786    
    243500   335.08893     -218747.48      0             -218256        -834.71376    
    243600   334.99014     -218749.6       0             -218258.26     -257.17111    
    243700   334.62166     -218753.93      0             -218263.14      442.88904    
    243800   329.4001      -218750.59      0             -218267.46      429.14537    
    243900   333.99446     -218755.28      0             -218265.41      598.68592    
    244000   334.75809     -218747.19      0             -218256.19     -285.97612    
    244100   335.43952     -218744.85      0             -218252.86     -326.1251     
    244200   335.70147     -218750.19      0             -218257.81      73.554303    
    244300   335.35131     -218756.1       0             -218264.23     -657.86001    
    244400   331.4042      -218751.92      0             -218265.85     -116.77245    
    244500   333.71195     -218753.14      0             -218263.68      80.821018    
    244600   337.50415     -218756.64      0             -218261.62      277.84321    
    244700   336.44325     -218753.4       0             -218259.93      514.66204    
    244800   333.35789     -218746.74      0             -218257.8      -352.84743    
    244900   335.38889     -218745.87      0             -218253.95     -510.42275    
    245000   340.73064     -218751.58      0             -218251.82      41.948949    
    245100   336.3541      -218753.28      0             -218259.95      295.72198    
    245200   333.47886     -218753         0             -218263.88     -163.57167    
    245300   332.62385     -218750.79      0             -218262.92     -990.39206    
    245400   336.95128     -218752.4       0             -218258.18     -495.95887    
    245500   337.66591     -218744.36      0             -218249.1      -560.14707    
    245600   337.66379     -218745.86      0             -218250.61      393.20316    
    245700   335.63646     -218749.21      0             -218256.93      1258.2786    
    245800   334.87344     -218750.31      0             -218259.14      425.52917    
    245900   335.97937     -218755.13      0             -218262.34     -852.42565    
    246000   330.61323     -218749.94      0             -218265.03     -704.02765    
    246100   333.96779     -218753.74      0             -218263.91     -517.24287    
    246200   332.84876     -218743.74      0             -218255.54      639.34964    
    246300   338.31161     -218748.78      0             -218252.57     -696.66102    
    246400   331.55314     -218743.36      0             -218257.06      395.70083    
    246500   332.05918     -218752.35      0             -218265.32      1161.8216    
    246600   334.26837     -218756.42      0             -218266.14     -303.91723    
    246700   332.92123     -218751.64      0             -218263.34     -933.59709    
    246800   335.56236     -218752.16      0             -218259.99     -499.24496    
    246900   336.62193     -218751.91      0             -218258.18      973.82163    
    247000   334.02502     -218752.62      0             -218262.7       1196.0189    
    247100   331.48206     -218757.48      0             -218271.29      449.78106    
    247200   334.51131     -218759.85      0             -218269.22      3.3354779    
    247300   336.06238     -218754.06      0             -218261.15     -543.10071    
    247400   337.09777     -218753.34      0             -218258.91      242.84709    
    247500   338.86835     -218756.15      0             -218259.13      6.9512249    
    247600   333.51686     -218749.55      0             -218260.37     -634.98347    
    247700   332.90817     -218753.55      0             -218265.27      600.32828    
    247800   328.96648     -218752.98      0             -218270.48      291.53287    
    247900   333.72619     -218755.18      0             -218265.7       615.36094    
    248000   336.24837     -218751.25      0             -218258.07     -572.25001    
    248100   336.52297     -218750.78      0             -218257.2      -696.41918    
    248200   337.47595     -218754.71      0             -218259.73      99.407942    
    248300   332.3329      -218751.42      0             -218263.98      595.31532    
    248400   329.53913     -218756.48      0             -218273.14     -63.21672     
    248500   329.4939      -218756.96      0             -218273.69      324.44544    
    248600   331.22952     -218751.1       0             -218265.28      759.59493    
    248700   336.55756     -218755.86      0             -218262.22      561.03977    
    248800   334.12277     -218749.31      0             -218259.25      433.20387    
    248900   338.07612     -218751.2       0             -218255.34     -551.64628    
    249000   338.23735     -218750.25      0             -218254.15     -789.19925    
    249100   337.04698     -218755.81      0             -218261.46     -266.13014    
    249200   331.71907     -218754.12      0             -218267.58     -29.98641     
    249300   331.3457      -218751.73      0             -218265.74     -1327.1388    
    249400   335.50181     -218751.02      0             -218258.93      243.21143    
    249500   337.83057     -218752.53      0             -218257.03      695.49592    
    249600   335.80984     -218750.59      0             -218258.05      1422.0502    
    249700   334.89062     -218751.67      0             -218260.48      355.83608    
    249800   333.78447     -218755.19      0             -218265.63     -243.59267    
    249900   327.69321     -218755.65      0             -218275.01      576.04101    
    250000   332.21343     -218760.86      0             -218273.6       1728.3478    
    250100   332.86255     -218751.79      0             -218263.58      322.7351     
    250200   332.09181     -218748.36      0             -218261.28      438.917      
    250300   335.14846     -218751.19      0             -218259.63     -296.22355    
    250400   333.89699     -218749.29      0             -218259.56     -179.73483    
    250500   332.75689     -218747.96      0             -218259.9      -104.15304    
    250600   337.16358     -218755.32      0             -218260.8      -195.7979     
    250700   333.82656     -218752.99      0             -218263.36      520.83421    
    250800   335.23692     -218757.35      0             -218265.65     -675.71346    
    250900   332.26297     -218752.34      0             -218265         23.34163     
    251000   336.22729     -218750.33      0             -218257.18      1171.694     
    251100   339.10405     -218751.98      0             -218254.61      808.54828    
    251200   335.12261     -218751.52      0             -218259.99     -291.66       
    251300   334.51052     -218756.43      0             -218265.8      -215.19418    
    251400   334.83316     -218756.59      0             -218265.49     -376.3548     
    251500   333.87934     -218752.97      0             -218263.27     -944.39323    
    251600   338.16556     -218754.92      0             -218258.93      327.80165    
    251700   337.74871     -218750.89      0             -218255.51     -690.23608    
    251800   339.24151     -218751.44      0             -218253.87      189.81758    
    251900   335.63215     -218751.19      0             -218258.91      1132.0805    
    252000   335.04007     -218756.66      0             -218265.25      679.71693    
    252100   334.90645     -218756.63      0             -218265.41     -412.95988    
    252200   338.1158      -218756.85      0             -218260.93     -501.73704    
    252300   338.10138     -218748.3       0             -218252.41      224.53919    
    252400   338.16611     -218749.51      0             -218253.52     -720.18023    
    252500   337.91857     -218753.5       0             -218257.87     -327.39763    
    252600   337.41199     -218755.16      0             -218260.28     -57.513575    
    252700   332.53122     -218748.58      0             -218260.86      34.991961    
    252800   337.20326     -218755.88      0             -218261.3       792.80284    
    252900   333.96458     -218751.66      0             -218261.83      397.7903     
    253000   331.56131     -218750.1       0             -218263.8       844.38982    
    253100   333.52725     -218753.29      0             -218264.1       226.85007    
    253200   335.89685     -218753.06      0             -218260.39      790.15868    
    253300   337.87328     -218749.66      0             -218254.1      -439.05493    
    253400   332.85703     -218742.47      0             -218254.26      144.46801    
    253500   335.31151     -218755.12      0             -218263.31      100.09173    
    253600   333.82301     -218757.87      0             -218268.25     -1008.6665    
    253700   337.13067     -218759.27      0             -218264.8       371.97024    
    253800   337.18921     -218752.94      0             -218258.38     -169.27036    
    253900   336.65906     -218749.35      0             -218255.57      200.46389    
    254000   338.37873     -218753.59      0             -218257.29      627.75087    
    254100   337.61763     -218755.13      0             -218259.94      446.91416    
    254200   336.42039     -218755.14      0             -218261.7      -524.92217    
    254300   337.75387     -218758.45      0             -218263.06     -682.58814    
    254400   334.29634     -218752.48      0             -218262.16      395.25194    
    254500   334.58582     -218748.41      0             -218257.67      317.29223    
    254600   336.39031     -218748.17      0             -218254.78      804.18258    
    254700   336.58945     -218751.51      0             -218257.83      166.44409    
    254800   333.20543     -218753.66      0             -218264.94      293.40068    
    254900   330.96634     -218754.01      0             -218268.58      1355.9268    
    255000   333.19398     -218753.65      0             -218264.95      674.46919    
    255100   337.0377      -218748.73      0             -218254.39      205.92727    
    255200   336.2948      -218747.59      0             -218254.35      460.2187     
    255300   337.23594     -218754.18      0             -218259.55      1009.7573    
    255400   333.29796     -218753.83      0             -218264.98      326.30398    
    255500   334.24483     -218755.46      0             -218265.22      286.55717    
    255600   336.24314     -218751.62      0             -218258.45      390.27193    
    255700   337.41658     -218746.3       0             -218251.41      452.17785    
    255800   338.98043     -218752.39      0             -218255.2       786.64457    
    255900   335.17787     -218752.05      0             -218260.44      172.74288    
    256000   332.49057     -218750.15      0             -218262.48     -76.993909    
    256100   332.3854      -218749.51      0             -218261.99      663.9085     
    256200   337.79455     -218753.3       0             -218257.85      356.51854    
    256300   339.36864     -218747.48      0             -218249.72      597.81686    
    256400   338.66328     -218747.12      0             -218250.4       1180.1216    
    256500   334.60729     -218750.91      0             -218260.13      688.94561    
    256600   331.66714     -218749.75      0             -218263.28      593.68262    
    256700   335.92372     -218754.89      0             -218262.19      61.181452    
    256800   334.40422     -218749.95      0             -218259.48      1085.0385    
    256900   335.55099     -218746.37      0             -218254.21      479.97987    
    257000   337.84569     -218744.62      0             -218249.1       466.46941    
    257100   337.03892     -218750.3       0             -218255.96     -33.665951    
    257200   335.90637     -218755.99      0             -218263.32     -82.02707     
    257300   331.92974     -218751.13      0             -218264.28      1443.1613    
    257400   338.15097     -218757.09      0             -218261.12     -252.64376    
    257500   336.93045     -218750.34      0             -218256.16      411.25657    
    257600   336.7171      -218744.24      0             -218250.38     -17.462875    
    257700   335.86986     -218742.96      0             -218250.34      834.89398    
    257800   337.00244     -218755.26      0             -218260.97      900.08956    
    257900   332.80332     -218752.87      0             -218264.75      577.39181    
    258000   333.83893     -218753.07      0             -218263.42     -198.74661    
    258100   336.1334      -218750.51      0             -218257.5       373.61593    
    258200   335.63211     -218745.15      0             -218252.87      44.804465    
    258300   332.70161     -218747.12      0             -218259.14      948.91935    
    258400   330.38195     -218752.99      0             -218268.42      317.96508    
    258500   334.87448     -218757.93      0             -218266.76      1127.6251    
    258600   336.24833     -218753.66      0             -218260.48      603.997      
    258700   335.22232     -218747.73      0             -218256.06     -15.523311    
    258800   337.04398     -218751.23      0             -218256.88      46.041773    
    258900   333.77868     -218748.7       0             -218259.14     -857.15277    
    259000   334.44824     -218750.76      0             -218260.22     -747.59303    
    259100   333.71797     -218750.66      0             -218261.19     -427.36443    
    259200   328.77022     -218743.7       0             -218261.49      731.69241    
    259300   339.48609     -218758.38      0             -218260.45      187.23384    
    259400   339.00236     -218758.03      0             -218260.81      475.01574    
    259500   335.83575     -218754.34      0             -218261.76      1108.3861    
    259600   335.16402     -218752.39      0             -218260.8       1147.7865    
    259700   335.33554     -218750.72      0             -218258.87     -416.96449    
    259800   338.50123     -218752.38      0             -218255.9      -251.07685    
    259900   337.377       -218752.63      0             -218257.79     -241.73019    
    260000   331.91939     -218752.68      0             -218265.85     -248.2476     
    260100   332.85784     -218755.85      0             -218267.64      548.61575    
    260200   335.78769     -218755.37      0             -218262.86      769.57912    
    260300   335.62913     -218748.21      0             -218255.94     -42.129509    
    260400   337.83032     -218750.28      0             -218254.78     -348.91108    
    260500   336.56384     -218751.06      0             -218257.42      219.58847    
    260600   335.5241      -218753.94      0             -218261.83     -441.14381    
    260700   332.95958     -218754.72      0             -218266.36      140.09206    
    260800   336.276       -218759.02      0             -218265.8       1492.8754    
    260900   336.84196     -218751.64      0             -218257.58      1485.7912    
    261000   338.27688     -218747.97      0             -218251.82      576.04303    
    261100   340.26823     -218754.05      0             -218254.97     -381.09938    
    261200   336.2804      -218755.09      0             -218261.87     -762.06928    
    261300   334.81663     -218754.73      0             -218263.65      357.42846    
    261400   337.99455     -218758.12      0             -218262.38     -58.396546    
    261500   339.56567     -218755.83      0             -218257.78      223.51444    
    261600   338.4804      -218749.99      0             -218253.54     -1481.6164    
    261700   339.47697     -218744.45      0             -218246.53     -1137.6816    
    261800   341.07143     -218749.35      0             -218249.1      -284.39476    
    261900   335.94847     -218751.69      0             -218258.95      501.66151    
    262000   333.22983     -218751.29      0             -218262.54     -505.35183    
    262100   334.02059     -218753.58      0             -218263.67     -763.44623    
    262200   334.85075     -218751.56      0             -218260.43      20.997698    
    262300   338.36547     -218749.14      0             -218252.85     -906.34901    
    262400   335.52812     -218743.42      0             -218251.3      -220.7106     
    262500   332.5581      -218749.75      0             -218261.98     -786.03201    
    262600   335.02766     -218757.81      0             -218266.42     -190.51713    
    262700   336.88646     -218758.48      0             -218264.36      542.92911    
    262800   335.38321     -218750.1       0             -218258.19      654.99715    
    262900   335.20802     -218747.98      0             -218256.33     -231.10405    
    263000   336.47431     -218750.88      0             -218257.37      7.6931482    
    263100   333.08261     -218754.91      0             -218266.38      47.446429    
    263200   330.9685      -218754.92      0             -218269.49     -59.043966    
    263300   330.13072     -218748.02      0             -218263.82      312.36717    
    263400   337.23276     -218752.11      0             -218257.49     -913.28828    
    263500   335.18104     -218748.84      0             -218257.22      55.227707    
    263600   332.13816     -218748.38      0             -218261.23     -362.46362    
    263700   333.50601     -218754.18      0             -218265.02     -328.40849    
    263800   335.58357     -218757.95      0             -218265.74      778.29042    
    263900   331.78213     -218748.51      0             -218261.88     -555.65391    
    264000   338.52513     -218752         0             -218255.48      248.41125    
    264100   332.84948     -218742.26      0             -218254.07      661.44963    
    264200   335.49768     -218751.31      0             -218259.23     -802.75864    
    264300   332.61318     -218754.19      0             -218266.34     -27.417526    
    264400   330.94882     -218752.28      0             -218266.87      1233.0358    
    264500   332.27079     -218750.78      0             -218263.43     -229.73957    
    264600   334.98868     -218752.17      0             -218260.84      1372.6006    
    264700   333.17472     -218749.09      0             -218260.41     -167.13007    
    264800   334.96017     -218750.65      0             -218259.36      930.36723    
    264900   334.99045     -218752.18      0             -218260.84      772.42611    
    265000   336.07488     -218756.24      0             -218263.31     -565.38812    
    265100   329.94477     -218753.76      0             -218269.82     -375.75078    
    265200   329.07161     -218752.04      0             -218269.38      1129.2687    
    265300   334.52465     -218751.51      0             -218260.86      1037.061     
    265400   336.15227     -218749.59      0             -218256.55      1190.2748    
    265500   335.61623     -218749.98      0             -218257.73      1672.1823    
    265600   334.58867     -218752.12      0             -218261.37      1045.7806    
    265700   333.74473     -218758.3       0             -218268.79      335.76171    
    265800   330.65523     -218758.06      0             -218273.08      425.14966    
    265900   332.25926     -218757.31      0             -218269.98     -840.00506    
    266000   335.20088     -218752.1       0             -218260.46     -1780.3297    
    266100   334.8675      -218747.32      0             -218256.16     -632.2945     
    266200   335.37543     -218747.26      0             -218255.36      17.81385     
    266300   336.84851     -218754.55      0             -218260.49     -108.92375    
    266400   334.70851     -218758.87      0             -218267.95      501.22716    
    266500   330.11774     -218752.88      0             -218268.69     -154.98084    
    266600   337.03867     -218757.82      0             -218263.48     -220.93193    
    266700   335.84885     -218754.17      0             -218261.57     -405.02422    
    266800   334.03593     -218750.01      0             -218260.07      168.91756    
    266900   338.15673     -218756.11      0             -218260.13      434.12643    
    267000   335.99628     -218753.07      0             -218260.26     -426.33117    
    267100   333.45639     -218749.59      0             -218260.51      706.23564    
    267200   332.91497     -218751.81      0             -218263.52     -165.70224    
    267300   337.44336     -218758.98      0             -218264.05     -404.11739    
    267400   336.33189     -218754.71      0             -218261.41     -812.04572    
    267500   337.2474      -218748.94      0             -218254.3      -1055.2161    
    267600   339.28556     -218750.37      0             -218252.73      799.73571    
    267700   334.63505     -218751.58      0             -218260.77      544.48719    
    267800   333.61776     -218753.84      0             -218264.52      456.79609    
    267900   331.74929     -218748.86      0             -218262.28      828.04308    
    268000   333.25061     -218747.61      0             -218258.83     -62.69355     
    268100   338.06406     -218752.95      0             -218257.11     -709.76822    
    268200   337.06509     -218751.44      0             -218257.06      162.24606    
    268300   337.05021     -218754.89      0             -218260.54     -642.89453    
    268400   332.08105     -218752.91      0             -218265.84      187.07388    
    268500   331.87066     -218754.12      0             -218267.36      283.95125    
    268600   337.9278      -218755.76      0             -218260.12      394.81592    
    268700   335.29406     -218746.49      0             -218254.71     -246.97113    
    268800   335.0434      -218747.82      0             -218256.41      291.47575    
    268900   333.66276     -218750.58      0             -218261.19      92.83404     
    269000   336.51861     -218759.21      0             -218265.64     -1079.6022    
    269100   326.37062     -218755.12      0             -218276.43     -445.1202     
    269200   330.11611     -218759.44      0             -218275.25      1109.7669    
    269300   333.37518     -218756.6       0             -218267.64     -80.173659    
    269400   333.92831     -218751         0             -218261.23      316.41583    
    269500   333.62619     -218747.24      0             -218257.91     -368.28748    
    269600   337.57761     -218752.34      0             -218257.21     -1593.1868    
    269700   335.41427     -218755.72      0             -218263.77     -139.03244    
    269800   332.0713      -218757.32      0             -218270.26     -46.012532    
    269900   330.38978     -218751.03      0             -218266.44      935.05994    
    270000   335.57335     -218753.22      0             -218261.03      538.71061    
    270100   335.81713     -218752.37      0             -218259.82      805.59104    
    270200   336.56196     -218754.31      0             -218260.67      1146.1334    
    270300   336.82486     -218756.96      0             -218262.94      455.31362    
    270400   332.23829     -218758.03      0             -218270.73     -259.45532    
    270500   330.27166     -218754.1       0             -218269.69     -635.71001    
    270600   331.42429     -218746.86      0             -218260.76     -71.207783    
    270700   334.21655     -218748.79      0             -218258.59     -796.86863    
    270800   334.49983     -218749.06      0             -218258.44      280.80916    
    270900   333.42773     -218748.74      0             -218259.69     -1314.6999    
    271000   333.36875     -218752.89      0             -218263.93      52.129625    
    271100   331.04528     -218755.29      0             -218269.74      41.237509    
    271200   331.9131      -218754.96      0             -218268.14      200.45381    
    271300   337.95872     -218754.53      0             -218258.84      1681.9098    
    271400   334.83556     -218748.21      0             -218257.1       671.09892    
    271500   339.0403      -218755.62      0             -218258.34      123.05702    
    271600   332.06571     -218751.08      0             -218264.03     -285.79688    
    271700   336.14615     -218763.21      0             -218270.18     -356.83951    
    271800   332.98869     -218762.18      0             -218273.78     -303.28292    
    271900   333.15435     -218755.32      0             -218266.68     -1129.9249    
    272000   336.38185     -218752.29      0             -218258.91      349.26892    
    272100   336.87078     -218749.93      0             -218255.83      161.54509    
    272200   334.55585     -218748.56      0             -218257.86      216.17158    
    272300   329.15987     -218748.01      0             -218265.23     -476.83903    
    272400   333.09385     -218756.41      0             -218267.85     -1094.2905    
    272500   333.4949      -218752.24      0             -218263.1      -452.91522    
    272600   331.94134     -218743.72      0             -218256.86      378.79582    
    272700   339.16065     -218752.65      0             -218255.2       906.86157    
    272800   336.27185     -218751.36      0             -218258.15      734.39594    
    272900   333.65204     -218753.38      0             -218264.01      481.39652    
    273000   334.22027     -218756.14      0             -218265.93      9.1874226    
    273100   334.36849     -218752.94      0             -218262.51      19.994024    
    273200   336.68286     -218748.71      0             -218254.89     -115.0583     
    273300   334.4953      -218743.74      0             -218253.13     -102.40703    
    273400   337.57462     -218753.12      0             -218257.99     -281.88257    
    273500   336.67053     -218758.38      0             -218264.58      1344.4646    
    273600   331.65657     -218750.73      0             -218264.29     -189.23207    
    273700   334.73803     -218751.2       0             -218260.24      238.56894    
    273800   333.56398     -218747.33      0             -218258.09      597.67934    
    273900   337.99179     -218750.9       0             -218255.16     -45.767284    
    274000   334.30049     -218748.02      0             -218257.7      -641.34544    
    274100   331.66285     -218752.57      0             -218266.11      1232.7781    
    274200   332.62775     -218756.72      0             -218268.85      255.4771     
    274300   332.01716     -218751.15      0             -218264.18      596.19465    
    274400   334.19417     -218748         0             -218257.83      880.68778    
    274500   335.09727     -218749.12      0             -218257.63     -84.242869    
    274600   334.49367     -218750.3       0             -218259.69      138.09211    
    274700   334.12459     -218754.48      0             -218264.42     -3.8398357    
    274800   331.70677     -218757.37      0             -218270.85      494.82882    
    274900   331.52917     -218755.64      0             -218269.38     -201.55116    
    275000   335.51197     -218749.99      0             -218257.89     -20.923471    
    275100   333.93317     -218746.38      0             -218256.6       503.41434    
    275200   335.81314     -218751.87      0             -218259.32      396.66939    
    275300   332.86049     -218752.19      0             -218263.98      65.978401    
    275400   335.54151     -218760.17      0             -218268.02     -837.21516    
    275500   327.87355     -218751.07      0             -218270.17     -1047.5552    
    275600   334.43618     -218753.23      0             -218262.71     -172.35052    
    275700   338.27776     -218751.82      0             -218255.66     -852.57472    
    275800   335.96207     -218748.94      0             -218256.18      302.19711    
    275900   335.89364     -218754.98      0             -218262.32      826.3478     
    276000   333.11409     -218755.8       0             -218267.21      1762.8666    
    276100   333.19284     -218755.41      0             -218266.71      1115.7878    
    276200   332.16282     -218750.63      0             -218263.44     -468.04663    
    276300   334.87404     -218752.23      0             -218261.06     -591.20816    
    276400   334.7202      -218751.57      0             -218260.64      506.35       
    276500   335.57572     -218751.14      0             -218258.95      145.58939    
    276600   338.58903     -218751.9       0             -218255.28     -84.62888     
    276700   337.28155     -218748.46      0             -218253.77      506.50399    
    276800   336.3694      -218754.8       0             -218261.44     -290.03672    
    276900   332.7258      -218754.15      0             -218266.14     -646.59745    
    277000   332.26713     -218752.34      0             -218265         785.28795    
    277100   336.75932     -218752.47      0             -218258.54      631.06949    
    277200   337.49976     -218743.88      0             -218248.86      97.098457    
    277300   339.04203     -218746.75      0             -218249.47     -458.40203    
    277400   337.52591     -218749.21      0             -218254.16     -551.38611    
    277500   334.18041     -218750.94      0             -218260.79     -848.66549    
    277600   332.65773     -218752.22      0             -218264.3       54.381696    
    277700   334.73314     -218755.91      0             -218264.95     -99.036439    
    277800   336.67318     -218751.4       0             -218257.59      166.552      
    277900   339.20693     -218749.63      0             -218252.12      414.23828    
    278000   338.13732     -218751.12      0             -218255.16      545.25651    
    278100   334.74529     -218752.4       0             -218261.42     -797.50826    
    278200   332.47599     -218750.25      0             -218262.61     -97.181459    
    278300   336.80382     -218756.01      0             -218262.02      360.02183    
    278400   342.3481      -218760.48      0             -218258.36      540.03588    
    278500   341.04619     -218752.36      0             -218252.14      248.71588    
    278600   336.12432     -218741.82      0             -218248.82     -228.04396    
    278700   333.84052     -218746.36      0             -218256.71     -331.86402    
    278800   330.1492      -218747.69      0             -218263.45     -1020.5416    
    278900   333.90104     -218752.34      0             -218262.6      -1549.6366    
    279000   335.60006     -218751.99      0             -218259.76      466.9517     
    279100   335.75179     -218745.36      0             -218252.91      943.10277    
    279200   338.6341      -218746.54      0             -218249.86      1062.6795    
    279300   332.2415      -218747.76      0             -218260.45     -782.64428    
    279400   332.85205     -218753.27      0             -218265.07     -74.460171    
    279500   336.326       -218755.36      0             -218262.07      899.82125    
    279600   335.20135     -218748.23      0             -218256.58      668.48871    
    279700   334.34662     -218744.82      0             -218254.43      131.3961     
    279800   338.01394     -218752.4       0             -218256.63      119.64604    
    279900   332.37834     -218753.46      0             -218265.95      318.10223    
    280000   333.30731     -218755.92      0             -218267.06      798.83651    
    280100   331.31341     -218748.83      0             -218262.89      341.15898    
    280200   337.04032     -218748.15      0             -218253.81     -316.16951    
    280300   340.33044     -218751.77      0             -218252.6      -385.57218    
    280400   337.17862     -218751.4       0             -218256.86     -581.42983    
    280500   335.14525     -218753.05      0             -218261.48      703.06091    
    280600   331.19498     -218749.82      0             -218264.05      1112.6648    
    280700   334.71169     -218753.05      0             -218262.12     -70.600221    
    280800   337.93814     -218753.27      0             -218257.61      754.2849     
    280900   340.20001     -218743.96      0             -218244.99      1150.4461    
    281000   338.92066     -218746.83      0             -218249.73     -412.83386    
    281100   334.41966     -218748.57      0             -218258.07      673.67861    
    281200   334.67242     -218753.58      0             -218262.71      195.63644    
    281300   330.45637     -218748.92      0             -218264.24     -496.33904    
    281400   333.84944     -218752.33      0             -218262.67      285.05717    
    281500   337.31098     -218748.12      0             -218253.38     -239.94488    
    281600   336.70509     -218745.83      0             -218251.98     -982.31893    
    281700   337.28722     -218753.29      0             -218258.59     -317.61003    
    281800   332.52766     -218751.82      0             -218264.09      836.45082    
    281900   335.01879     -218753.9       0             -218262.52     -42.321971    
    282000   337.39359     -218755.27      0             -218260.4       866.31353    
    282100   336.05257     -218748.65      0             -218255.76      633.48015    
    282200   339.64322     -218748.52      0             -218250.36      1614.9011    
    282300   337.13579     -218746.7       0             -218252.21      795.09934    
    282400   335.73461     -218754.71      0             -218262.28      103.17857    
    282500   331.43943     -218751.57      0             -218265.44     -138.33687    
    282600   334.6735      -218753.65      0             -218262.78      448.67934    
    282700   335.97104     -218747.91      0             -218255.13      1223.1611    
    282800   337.07306     -218746.58      0             -218252.19      55.023043    
    282900   335.77596     -218748.01      0             -218255.52     -678.96146    
    283000   337.22645     -218752.33      0             -218257.72     -866.40058    
    283100   334.87409     -218752.52      0             -218261.36     -219.48485    
    283200   335.05628     -218755.22      0             -218263.78      103.88629    
    283300   332.4047      -218751.32      0             -218263.78     -223.90354    
    283400   334.62845     -218750.61      0             -218259.8       129.9313     
    283500   338.94694     -218752.3       0             -218255.16      359.3258     
    283600   338.37317     -218751.09      0             -218254.79      944.90716    
    283700   330.39429     -218747.1       0             -218262.5       54.621509    
    283800   333.01152     -218756.33      0             -218267.9       575.53818    
    283900   333.47805     -218753.23      0             -218264.11     -91.414662    
    284000   337.89147     -218756.07      0             -218260.48     -74.633569    
    284100   337.37097     -218753.55      0             -218258.72     -271.9303     
    284200   333.0271      -218747.2       0             -218258.75      812.71989    
    284300   336.26616     -218752.99      0             -218259.78      273.5498     
    284400   336.82011     -218754.7       0             -218260.68     -523.3975     
    284500   333.26164     -218749.48      0             -218260.68      209.70956    
    284600   335.32675     -218749.36      0             -218257.53      197.11169    
    284700   335.58245     -218746.18      0             -218253.98     -745.37749    
    284800   338.11954     -218751.39      0             -218255.46     -66.131591    
    284900   333.89382     -218752.64      0             -218262.91      499.59426    
    285000   335.24067     -218757.57      0             -218265.87      675.84091    
    285100   334.80674     -218755.22      0             -218264.15     -1028.8145    
    285200   339.32955     -218750.84      0             -218253.14      17.489022    
    285300   338.52801     -218748.92      0             -218252.4       555.83085    
    285400   335.6547      -218749.36      0             -218257.05     -854.36423    
    285500   337.27884     -218755.76      0             -218261.07      69.733689    
    285600   334.44249     -218753.58      0             -218263.05     -1403.896     
    285700   332.91378     -218751.61      0             -218263.32     -472.66373    
    285800   334.80423     -218751.59      0             -218260.53      393.26331    
    285900   338.69908     -218745.76      0             -218248.98      920.69854    
    286000   340.44411     -218746.1       0             -218246.77     -104.517      
    286100   334.25051     -218746.11      0             -218255.86     -1865.4517    
    286200   336.91264     -218755.39      0             -218261.23     -523.29546    
    286300   333.13771     -218753.9       0             -218265.28     -59.119701    
    286400   334.85765     -218755.38      0             -218264.24     -293.15448    
    286500   335.49284     -218747.62      0             -218255.55      1315.7272    
    286600   338.66806     -218748         0             -218251.27      945.99346    
    286700   336.34319     -218749         0             -218255.68      961.81888    
    286800   335.219       -218752.08      0             -218260.41     -170.47601    
    286900   337.4402      -218757.05      0             -218262.12     -703.70793    
    287000   329.50145     -218746.29      0             -218263        -950.30694    
    287100   333.95743     -218749.05      0             -218259.23     -380.26653    
    287200   338.53634     -218744.7       0             -218248.17     -47.152995    
    287300   343.13725     -218753.69      0             -218250.41      131.65402    
    287400   335.51679     -218750.17      0             -218258.06     -246.05353    
    287500   332.06159     -218749.04      0             -218262        -74.521752    
    287600   334.17605     -218754.45      0             -218264.31     -792.10963    
    287700   331.09099     -218747.99      0             -218262.37     -607.7063     
    287800   338.15298     -218748.03      0             -218252.05      83.32985     
    287900   339.02898     -218749.65      0             -218252.39      243.1396     
    288000   334.94996     -218750.11      0             -218258.83      179.69331    
    288100   335.0745      -218753.41      0             -218261.95      73.872089    
    288200   334.42826     -218753.3       0             -218262.79     -826.38203    
    288300   336.30755     -218755.29      0             -218262.03     -1641.4474    
    288400   334.73273     -218750.55      0             -218259.6      -285.09651    
    288500   338.60467     -218745.58      0             -218248.95     -211.13546    
    288600   341.6996      -218744.99      0             -218243.81     -195.70176    
    288700   336.56419     -218744.11      0             -218250.47     -660.29227    
    288800   336.02155     -218749.72      0             -218256.88     -477.01039    
    288900   335.75953     -218754.44      0             -218261.98     -363.99111    
    289000   333.5765      -218754.95      0             -218265.69     -487.6509     
    289100   331.6332      -218754.08      0             -218267.67      985.66402    
    289200   336.10632     -218752.58      0             -218259.61     -115.21318    
    289300   338.25662     -218750.3       0             -218254.18     -625.75154    
    289400   337.89392     -218752.71      0             -218257.11      90.005766    
    289500   332.487       -218750.73      0             -218263.06      163.04678    
    289600   332.92774     -218754.22      0             -218265.91     -1446.9093    
    289700   333.44457     -218750.32      0             -218261.25      231.78177    
    289800   341.17896     -218751.34      0             -218250.93     -521.06307    
    289900   339.78252     -218750.72      0             -218252.35      477.79532    
    290000   335.55738     -218753.37      0             -218261.21      335.6691     
    290100   333.35646     -218752.38      0             -218263.44      753.51326    
    290200   329.36014     -218745.4       0             -218262.33      378.8971     
    290300   338.10818     -218752.59      0             -218256.69      231.92171    
    290400   335.73569     -218742.47      0             -218250.04     -704.08552    
    290500   337.07373     -218748.69      0             -218254.29      929.88229    
    290600   335.6188      -218753.46      0             -218261.2      -573.05399    
    290700   333.48909     -218751.45      0             -218262.31     -1237.4714    
    290800   334.96154     -218752.81      0             -218261.51     -561.31008    
    290900   334.27233     -218747.64      0             -218257.36      350.23068    
    291000   338.53621     -218748.56      0             -218252.02     -442.177      
    291100   336.89282     -218745.08      0             -218250.95      115.88371    
    291200   333.26678     -218749.58      0             -218260.78     -746.6755     
    291300   333.0775      -218754.34      0             -218265.81      673.06119    
    291400   332.53536     -218752.74      0             -218265.01      1003.3082    
    291500   335.235       -218750.14      0             -218258.45     -857.15575    
    291600   334.32099     -218743.35      0             -218253         273.65127    
    291700   336.83083     -218748.15      0             -218254.12      415.94345    
    291800   335.21277     -218748.31      0             -218256.65      412.08934    
    291900   334.53336     -218749.58      0             -218258.92     -51.846669    
    292000   333.86386     -218752.43      0             -218262.74     -7.693104     
    292100   334.05843     -218757.22      0             -218267.25      333.40874    
    292200   330.0044      -218750.24      0             -218266.22      468.18916    
    292300   335.15061     -218748.54      0             -218256.97     -544.20137    
    292400   337.98103     -218749.5       0             -218253.78      897.67347    
    292500   336.56382     -218750.07      0             -218256.43      284.81208    
    292600   336.43056     -218758.65      0             -218265.2      -853.02097    
    292700   334.48933     -218757.41      0             -218266.81     -562.04898    
    292800   336.71102     -218758.18      0             -218264.32      167.67669    
    292900   334.44591     -218751.94      0             -218261.4       723.57208    
    293000   330.85093     -218744.5       0             -218259.24     -127.34491    
    293100   336.73073     -218752.8       0             -218258.91     -583.61161    
    293200   334.56407     -218750.76      0             -218260.05      547.4766     
    293300   335.61602     -218756.96      0             -218264.71      973.88365    
    293400   334.25931     -218756.71      0             -218266.45      596.59427    
    293500   333.68906     -218750.62      0             -218261.19      495.09939    
    293600   336.19446     -218748.52      0             -218255.42      864.20006    
    293700   336.34827     -218748.32      0             -218254.99      346.3002     
    293800   332.15922     -218750.75      0             -218263.57     -180.09919    
    293900   330.34059     -218754.35      0             -218269.84      376.50092    
    294000   336.33811     -218759.08      0             -218265.77      554.32717    
    294100   333.4451      -218749.86      0             -218260.79      800.4764     
    294200   340.98475     -218758.17      0             -218258.04     -631.33857    
    294300   334.6336      -218749.87      0             -218259.06     -256.93809    
    294400   333.80582     -218755.75      0             -218266.15      1125.724     
    294500   332.13414     -218759.71      0             -218272.57      0.83165802   
    294600   333.59038     -218756.99      0             -218267.71      37.652019    
    294700   332.88917     -218748.74      0             -218260.49      626.47465    
    294800   335.57335     -218751.42      0             -218259.23     -177.68825    
    294900   339.13531     -218755.23      0             -218257.82     -202.61331    
    295000   337.4876      -218755.51      0             -218260.52      235.09959    
    295100   334.82856     -218759.26      0             -218268.16     -527.08577    
    295200   333.39426     -218758.51      0             -218269.52     -664.5088     
    295300   336.76049     -218754.9       0             -218260.96     -83.671861    
    295400   335.50674     -218750.92      0             -218258.83     -1200.4033    
    295500   335.38655     -218750.66      0             -218258.74     -257.568      
    295600   335.29302     -218753.38      0             -218261.6       389.32546    
    295700   331.93421     -218754.94      0             -218268.09      390.67736    
    295800   331.28714     -218759.83      0             -218273.92      528.23634    
    295900   333.83212     -218756.67      0             -218267.03     -546.45084    
    296000   336.468       -218752.4       0             -218258.89     -224.6663     
    296100   334.3593      -218747.35      0             -218256.94     -231.73556    
    296200   337.60682     -218753.38      0             -218258.2      -219.96646    
    296300   331.52042     -218750.8       0             -218264.56     -461.88067    
    296400   330.08928     -218753.91      0             -218269.76     -439.25109    
    296500   335.71967     -218758.55      0             -218266.15     -189.70808    
    296600   338.36902     -218751.59      0             -218255.3      -738.0574     
    296700   338.85256     -218752.22      0             -218255.22      92.29925     
    296800   335.08743     -218753         0             -218261.52      1220.0549    
    296900   336.72355     -218759.22      0             -218265.34     -531.9834     
    297000   334.64856     -218755.54      0             -218264.71     -1028.515     
    297100   339.83031     -218753.06      0             -218254.63      421.65595    
    297200   339.63974     -218749.71      0             -218251.56     -217.92062    
    297300   335.60066     -218748.85      0             -218256.62      1490.9957    
    297400   337.92216     -218757.6       0             -218261.97      1148.0657    
    297500   335.43595     -218755.12      0             -218263.14      466.59476    
    297600   334.81891     -218752.7       0             -218261.62     -1111.1884    
    297700   337.66797     -218755.2       0             -218259.94     -694.48607    
    297800   342.22569     -218751.86      0             -218249.91     -49.579566    
    297900   338.7386      -218746.1       0             -218249.27      215.72371    
    298000   336.09341     -218749.59      0             -218256.63      113.51242    
    298100   336.80961     -218754.99      0             -218260.99      518.9922     
    298200   336.71395     -218756.11      0             -218262.25      814.03364    
    298300   334.20043     -218752.93      0             -218262.75      449.94499    
    298400   335.48132     -218752.92      0             -218260.86      557.54374    
    298500   337.72649     -218751.02      0             -218255.67     -593.20408    
    298600   338.56053     -218748.84      0             -218252.27     -435.84203    
    298700   335.35924     -218749.78      0             -218257.91      414.14376    
    298800   335.28546     -218756.88      0             -218265.11      275.31393    
    298900   334.1156      -218755.1       0             -218265.05     -164.79282    
    299000   334.76916     -218752.61      0             -218261.6      -515.21639    
    299100   336.32234     -218750.64      0             -218257.35     -609.26509    
    299200   335.38018     -218742.43      0             -218250.53      22.448827    
    299300   340.03499     -218743.16      0             -218244.43     -251.21763    
    299400   335.30661     -218744.16      0             -218252.36      726.61564    
    299500   334.35358     -218749.88      0             -218259.47      754.03813    
    299600   333.09518     -218751.08      0             -218262.52     -449.63457    
    299700   331.64932     -218751.21      0             -218264.77     -713.30594    
    299800   333.06079     -218750.3       0             -218261.79     -1.6886778    
    299900   340.19127     -218752.65      0             -218253.69      129.57346    
    300000   340.01427     -218750.58      0             -218251.88      32.596534    
    300100   333.58923     -218748.1       0             -218258.82      145.19854    
    300200   333.18474     -218754.77      0             -218266.08      361.2301     
    300300   335.7705      -218757.64      0             -218265.17      860.26523    
    300400   336.48229     -218754.07      0             -218260.54      980.63291    
    300500   336.14552     -218748.34      0             -218255.31      337.87199    
    300600   333.84218     -218745.17      0             -218255.52      334.53162    
    300700   333.10201     -218755.37      0             -218266.8       448.47647    
    300800   331.89502     -218755.36      0             -218268.56      198.35239    
    300900   334.70339     -218753.28      0             -218262.37     -604.25431    
    301000   338.8916      -218753.79      0             -218256.74     -720.08818    
    301100   336.71171     -218750.6       0             -218256.74     -841.49095    
    301200   335.25136     -218751.1       0             -218259.38     -900.12889    
    301300   331.25501     -218750.96      0             -218265.1      -360.19801    
    301400   331.09164     -218760.65      0             -218275.04     -108.49039    
    301500   329.76338     -218753.57      0             -218269.9      -127.88231    
    301600   334.33792     -218754.32      0             -218263.94     -108.60225    
    301700   337.18085     -218754.72      0             -218260.18      1179.3726    
    301800   336.60465     -218751.97      0             -218258.27     -44.556527    
    301900   336.54849     -218750.55      0             -218256.92      998.0374     
    302000   336.51619     -218754.19      0             -218260.62     -400.99601    
    302100   331.84974     -218752.88      0             -218266.15      1160.5362    
    302200   328.41635     -218749.74      0             -218268.05      1084.5284    
    302300   334.15325     -218750.31      0             -218260.2      -323.16397    
    302400   339.68636     -218752.9       0             -218254.68     -259.92388    
    302500   335.73852     -218749.1       0             -218256.67      282.0936     
    302600   334.34488     -218751.1       0             -218260.71     -101.32121    
    302700   332.72857     -218753.35      0             -218265.33     -1389.2069    
    302800   334.65536     -218761.47      0             -218270.62     -503.45452    
    302900   334.13711     -218764.28      0             -218274.2       40.026695    
    303000   329.36618     -218748.9       0             -218265.81     -783.00903    
    303100   336.04244     -218752.81      0             -218259.93     -393.73918    
    303200   339.17699     -218754.6       0             -218257.12      361.69047    
    303300   340.04736     -218756.21      0             -218257.46      266.62553    
    303400   331.87994     -218752.83      0             -218266.06      919.20724    
    303500   328.40911     -218750.67      0             -218268.99      396.47054    
    303600   335.99616     -218756.48      0             -218263.67      287.05939    
    303700   335.16096     -218751.8       0             -218260.22     -7.8467525    
    303800   332.08508     -218746.86      0             -218259.78      718.89243    
    303900   333.68923     -218749.39      0             -218259.96     -947.25439    
    304000   332.27014     -218748.33      0             -218260.98      227.61482    
    304100   330.84762     -218747.47      0             -218262.21     -680.30597    
    304200   335.86168     -218754.14      0             -218261.53     -525.02605    
    304300   337.36169     -218754.15      0             -218259.33      117.88226    
    304400   337.54008     -218750.21      0             -218255.14     -127.89657    
    304500   339.17101     -218750.98      0             -218253.51     -790.89229    
    304600   334.16653     -218752.05      0             -218261.92     -682.60492    
    304700   335.39542     -218758.79      0             -218266.86      409.17511    
    304800   335.69153     -218756.99      0             -218264.63      231.25684    
    304900   333.02522     -218747.16      0             -218258.7       714.37839    
    305000   336.14881     -218746.2       0             -218253.16      1126.3464    
    305100   338.29046     -218750.34      0             -218254.16      1538.021     
    305200   334.0563      -218756.74      0             -218266.78      23.768863    
    305300   332.76335     -218755.12      0             -218267.05     -1065.6913    
    305400   332.05762     -218749.22      0             -218262.19     -730.59139    
    305500   336.3236      -218748.74      0             -218255.45     -789.19765    
    305600   337.7218      -218748.73      0             -218253.39     -183.52221    
    305700   335.9484      -218752.67      0             -218259.92     -288.52645    
    305800   331.73947     -218753.29      0             -218266.72     -276.25195    
    305900   335.41799     -218757.87      0             -218265.9       464.24144    
    306000   336.23498     -218755.51      0             -218262.34      412.94059    
    306100   334.11795     -218749.41      0             -218259.35      1490.2823    
    306200   337.45621     -218752         0             -218257.05      1185.8604    
    306300   337.50795     -218749.72      0             -218254.69      549.99276    
    306400   335.90473     -218748.75      0             -218256.08      110.58807    
    306500   331.68556     -218748.91      0             -218262.43     -791.2657     
    306600   333.43178     -218756.38      0             -218267.33     -314.85489    
    306700   329.69512     -218748.18      0             -218264.61      97.484035    
    306800   337.82598     -218751.49      0             -218256        -243.03223    
    306900   339.35108     -218751.9       0             -218254.17     -1267.9531    
    307000   338.60269     -218754.01      0             -218257.38     -1526.1807    
    307100   333.58295     -218750.02      0             -218260.75     -274.93714    
    307200   335.1392      -218755.65      0             -218264.1      -439.59109    
    307300   330.79142     -218753.87      0             -218268.69     -147.87651    
    307400   332.11143     -218761.62      0             -218274.51     -282.51837    
    307500   330.51386     -218754.14      0             -218269.37      157.488      
    307600   331.88541     -218747.86      0             -218261.08      310.9295     
    307700   335.23249     -218750.37      0             -218258.68     -429.66038    
    307800   333.64334     -218748.64      0             -218259.28      285.19772    
    307900   332.09014     -218750.63      0             -218263.55      527.3219     
    308000   332.05346     -218756.9       0             -218269.88      202.90163    
    308100   330.85803     -218755.84      0             -218270.56     -390.85138    
    308200   336.50102     -218753.5       0             -218259.95     -1276.8748    
    308300   331.95526     -218742.62      0             -218255.74     -136.47501    
    308400   335.26519     -218748.97      0             -218257.23     -1151.5244    
    308500   336.59594     -218756.36      0             -218262.67     -1272.0994    
    308600   332.03379     -218755.69      0             -218268.69     -9.9593228    
    308700   334.37057     -218757.88      0             -218267.45      760.38883    
    308800   337.08393     -218749.88      0             -218255.48      12.822437    
    308900   333.14787     -218743.28      0             -218254.64      823.88418    
    309000   335.23907     -218752.72      0             -218261.02      946.29275    
    309100   330.07842     -218750.06      0             -218265.93     -209.97363    
    309200   331.38773     -218751.21      0             -218265.16      80.136246    
    309300   336.30977     -218751.12      0             -218257.85      515.10515    
    309400   338.20222     -218746.51      0             -218250.47      273.81211    
    309500   337.99442     -218749.75      0             -218254        -133.03121    
    309600   335.44685     -218752.33      0             -218260.32     -599.95439    
    309700   333.95479     -218753.2       0             -218263.38     -59.627581    
    309800   333.83143     -218753.77      0             -218264.13      1184.7581    
    309900   338.25206     -218751.38      0             -218255.26     -244.60105    
    310000   338.50971     -218746.71      0             -218250.21     -852.18835    
    310100   333.07515     -218743.06      0             -218254.54     -535.97208    
    310200   337.55099     -218755.59      0             -218260.5       338.11039    
    310300   335.87403     -218756.02      0             -218263.39      699.89517    
    310400   332.22176     -218750.52      0             -218263.25     -542.70737    
    310500   334.43491     -218751.63      0             -218261.11      520.0374     
    310600   336.10084     -218750.6       0             -218257.64      27.175092    
    310700   338.45489     -218743.29      0             -218246.88     -353.07391    
    310800   337.98467     -218744.14      0             -218248.41     -935.89045    
    310900   335.30699     -218748.28      0             -218256.48     -860.23551    
    311000   333.93969     -218750.12      0             -218260.33      164.56616    
    311100   336.74255     -218756.57      0             -218262.67     -554.72269    
    311200   336.43839     -218757.54      0             -218264.08      719.9583     
    311300   336.91948     -218756.68      0             -218262.52     -254.25306    
    311400   339.73311     -218754.43      0             -218256.14     -596.16908    
    311500   336.64624     -218746.85      0             -218253.09     -902.76598    
    311600   333.34768     -218746.73      0             -218257.8      -231.34309    
    311700   332.24572     -218753.33      0             -218266.02      1077.2739    
    311800   333.47052     -218754.91      0             -218265.81      271.2704     
    311900   333.36267     -218751.45      0             -218262.5       556.83092    
    312000   334.6524      -218750.27      0             -218259.43      516.21923    
    312100   337.55042     -218749.21      0             -218254.12      485.12827    
    312200   340.34408     -218743.86      0             -218244.67     -1.6427529    
    312300   338.60098     -218745.39      0             -218248.76     -1099.1002    
    312400   338.70708     -218753.47      0             -218256.68     -259.94448    
    312500   336.14679     -218753.97      0             -218260.94     -210.3189     
    312600   332.29025     -218749.96      0             -218262.58      959.70844    
    312700   332.63762     -218749.86      0             -218261.97      348.23274    
    312800   337.96479     -218752.09      0             -218256.39     -959.5582     
    312900   337.05288     -218745.08      0             -218250.72     -752.52534    
    313000   336.05957     -218746.59      0             -218253.69     -224.61226    
    313100   332.68524     -218751.67      0             -218263.71     -233.76887    
    313200   334.47387     -218755.14      0             -218264.56      320.27819    
    313300   332.67056     -218749.96      0             -218262.03      1266.2753    
    313400   334.78991     -218747.14      0             -218256.1       253.20861    
    313500   338.90852     -218747.05      0             -218249.97      428.85907    
    313600   334.64028     -218744.22      0             -218253.39     -501.14038    
    313700   334.96029     -218755.43      0             -218264.14      653.97889    
    313800   332.2264      -218753.31      0             -218266.03     -97.83923     
    313900   334.95255     -218753.64      0             -218262.36     -223.65744    
    314000   336.78198     -218750.33      0             -218256.37     -779.72738    
    314100   335.90659     -218745.69      0             -218253.01      248.19197    
    314200   334.75968     -218751.39      0             -218260.39      516.86738    
    314300   333.06658     -218755.64      0             -218267.13      739.45819    
    314400   334.11774     -218756.12      0             -218266.06      284.94259    
    314500   335.40794     -218751.64      0             -218259.7       429.03628    
    314600   337.2869      -218748.88      0             -218254.18     -369.89574    
    314700   336.57082     -218748.05      0             -218254.4      -746.75558    
    314800   336.66738     -218750.99      0             -218257.19      224.11439    
    314900   338.02112     -218756.46      0             -218260.68     -245.43704    
    315000   333.04472     -218750.51      0             -218262.03     -501.99081    
    315100   331.82231     -218750.96      0             -218264.27     -428.38902    
    315200   334.10725     -218755.27      0             -218265.23     -9.7790728    
    315300   334.66266     -218752.47      0             -218261.61     -534.55486    
    315400   332.85405     -218744.53      0             -218256.33      695.15367    
    315500   338.82419     -218751.05      0             -218254.09      510.48158    
    315600   338.53837     -218755.94      0             -218259.4       277.46661    
    315700   335.55142     -218759.85      0             -218267.69      504.78713    
    315800   332.1631      -218753.75      0             -218266.56     -227.68753    
    315900   333.47909     -218750         0             -218260.88     -22.534374    
    316000   335.76643     -218749.23      0             -218256.75     -1113.6078    
    316100   338.24986     -218753.3       0             -218257.19     -1045.819     
    316200   335.34421     -218750.73      0             -218258.87     -4.8217874    
    316300   338.23162     -218756.92      0             -218260.83     -198.65863    
    316400   329.43968     -218748.29      0             -218265.09     -111.4079     
    316500   332.02566     -218756.15      0             -218269.16      86.408774    
    316600   333.31544     -218756.28      0             -218267.4       68.505407    
    316700   337.57569     -218753.88      0             -218258.75     -146.25737    
    316800   338.26874     -218751.99      0             -218255.85      474.06863    
    316900   335.10146     -218750.15      0             -218258.65      509.10244    
    317000   333.29068     -218755.12      0             -218266.28     -352.1219     
    317100   330.80949     -218753.5       0             -218268.3      -267.12628    
    317200   334.45351     -218756.27      0             -218265.72      120.18689    
    317300   333.94344     -218751.69      0             -218261.89     -174.81607    
    317400   337.30843     -218752.5       0             -218257.76     -917.15525    
    317500   337.8397      -218751.21      0             -218255.7      -99.062826    
    317600   333.74035     -218751.27      0             -218261.77     -951.47273    
    317700   330.87521     -218754.87      0             -218269.57      0.30434489   
    317800   333.4764      -218756.98      0             -218267.87      652.05843    
    317900   335.43085     -218752.51      0             -218260.52      411.31921    
    318000   336.20701     -218750.55      0             -218257.43      1035.9879    
    318100   331.8         -218745.67      0             -218259.01      873.59736    
    318200   332.28539     -218748.69      0             -218261.32     -367.42538    
    318300   330.87239     -218752.57      0             -218267.27      1346.0277    
    318400   332.53091     -218761.25      0             -218273.52     -790.98172    
    318500   331.4531      -218754.64      0             -218268.49     -596.55424    
    318600   334.88944     -218750.93      0             -218259.74     -3.0688766    
    318700   335.20355     -218750.86      0             -218259.21      1187.5155    
    318800   334.5841      -218751.99      0             -218261.25      1440.0551    
    318900   334.48584     -218754.5       0             -218263.91      974.38829    
    319000   331.80181     -218752.59      0             -218265.93      593.06772    
    319100   330.97392     -218751.83      0             -218266.39      638.68195    
    319200   330.61217     -218745.67      0             -218260.76      772.3726     
    319300   336.46885     -218747.6       0             -218254.09      354.40203    
    319400   334.22772     -218744.37      0             -218254.15      264.56562    
    319500   335.00677     -218752.51      0             -218261.15     -1268.1587    
    319600   329.93921     -218749.05      0             -218265.12     -862.14356    
    319700   334.53017     -218755.1       0             -218264.44      312.90501    
    319800   337.23182     -218754.82      0             -218260.2       412.60474    
    319900   333.75327     -218744.29      0             -218254.77     -520.82456    
    320000   335.90213     -218746.22      0             -218253.55     -876.66109    
    320100   333.86653     -218754.81      0             -218265.12      219.65542    
    320200   330.53299     -218751.88      0             -218267.08     -425.34841    
    320300   335.78584     -218754.32      0             -218261.82     -196.37848    
    320400   336.19129     -218750.09      0             -218256.99      472.13061    
    320500   334.20954     -218746.56      0             -218256.37      145.80313    
    320600   336.26428     -218758.7       0             -218265.49     -582.45257    
    320700   330.84874     -218755.67      0             -218270.41     -653.46885    
    320800   335.44648     -218757.16      0             -218265.15     -282.8417     
    320900   332.04919     -218747.98      0             -218260.96      474.62158    
    321000   334.40949     -218749.47      0             -218258.99     -194.71172    
    321100   336.53731     -218752.58      0             -218258.97     -519.75275    
    321200   330.23563     -218750.52      0             -218266.16      371.77767    
    321300   335.45569     -218762.91      0             -218270.89     -311.79268    
    321400   334.10097     -218756.09      0             -218266.06     -1374.7353    
    321500   335.09055     -218750.19      0             -218258.71     -468.40851    
    321600   335.09288     -218749.1       0             -218257.62     -230.01788    
    321700   336.42375     -218753.53      0             -218260.09      551.67094    
    321800   335.40195     -218758.56      0             -218266.63      795.48515    
    321900   330.82284     -218759.62      0             -218274.4       536.77639    
    322000   330.17983     -218754.5       0             -218270.22      481.6915     
    322100   335.03244     -218752.7       0             -218261.3       322.58618    
    322200   333.67229     -218748.69      0             -218259.29      1037.7873    
    322300   335.41806     -218750.83      0             -218258.87      234.71527    
    322400   335.67913     -218751.93      0             -218259.58     -1016.2951    
    322500   336.1388      -218756.25      0             -218263.23     -525.3433     
    322600   332.61565     -218756.25      0             -218268.39     -299.12924    
    322700   334.90202     -218758.46      0             -218267.25     -1517.0956    
    322800   335.22619     -218749.23      0             -218257.55      1632.9239    
    322900   334.46607     -218745.25      0             -218254.68      320.15291    
    323000   339.53025     -218755.8       0             -218257.8      -295.19155    
    323100   331.38056     -218750.47      0             -218264.43      485.42631    
    323200   333.73431     -218756.28      0             -218266.79      237.54953    
    323300   338.49717     -218755.69      0             -218259.22      952.0168     
    323400   338.80541     -218746.76      0             -218249.83     -169.52528    
    323500   340.95993     -218753.1       0             -218253         1126.0485    
    323600   336.51642     -218755.14      0             -218261.57      767.80208    
    323700   330.5685      -218750.26      0             -218265.41     -50.266163    
    323800   330.2058      -218750.1       0             -218265.78     -431.9124     
    323900   335.08435     -218749.81      0             -218258.33      80.156196    
    324000   338.67943     -218748.09      0             -218251.34      629.41503    
    324100   340.51726     -218753.39      0             -218253.95     -942.91343    
    324200   333.45187     -218749.63      0             -218260.56     -917.74239    
    324300   333.37332     -218751.54      0             -218262.58     -353.41024    
    324400   334.45691     -218753.07      0             -218262.52      1278.8319    
    324500   333.56321     -218749.39      0             -218260.15     -329.71129    
    324600   341.50004     -218751.63      0             -218250.75      722.92937    
    324700   338.39454     -218748.45      0             -218252.12      1316.9176    
    324800   337.84852     -218755.97      0             -218260.44      1558.5183    
    324900   334.4749      -218752.99      0             -218262.41      1471.0063    
    325000   332.19939     -218749.17      0             -218261.93      582.22512    
    325100   336.57018     -218753.74      0             -218260.09      510.50511    
    325200   337.40724     -218747.61      0             -218252.73     -17.973332    
    325300   335.71654     -218742.03      0             -218249.63     -1153.3152    
    325400   333.72639     -218747.79      0             -218258.3       100.1279     
    325500   331.13008     -218748.26      0             -218262.59      18.98554     
    325600   336.43127     -218755.84      0             -218262.39      683.32468    
    325700   336.12303     -218752.44      0             -218259.45     -542.71989    
    325800   332.39398     -218744.11      0             -218256.59     -285.96899    
    325900   337.96007     -218748.26      0             -218252.57     -1047.5449    
    326000   334.90817     -218745.38      0             -218254.16     -827.49802    
    326100   331.29315     -218748.69      0             -218262.78      252.27756    
    326200   332.83609     -218753.19      0             -218265.01     -153.75175    
    326300   332.79165     -218750.52      0             -218262.41      245.91189    
    326400   335.92908     -218748.79      0             -218256.08     -289.86196    
    326500   337.96598     -218745.6       0             -218249.9      -1205.3932    
    326600   341.40369     -218744.33      0             -218243.59     -42.326745    
    326700   337.75478     -218745.74      0             -218250.35      673.5402     
    326800   335.41256     -218750.76      0             -218258.81      109.05415    
    326900   336.30193     -218755.96      0             -218262.7       642.22587    
    327000   333.29779     -218754.25      0             -218265.4      -491.65734    
    327100   336.30223     -218757.73      0             -218264.47     -1132.0867    
    327200   336.45296     -218749.22      0             -218255.74     -932.90547    
    327300   336.05441     -218745.64      0             -218252.74      504.40973    
    327400   338.23521     -218753.87      0             -218257.77     -262.16956    
    327500   332.74864     -218751.68      0             -218263.63     -326.52664    
    327600   335.74413     -218755.14      0             -218262.69     -458.23962    
    327700   336.63498     -218753.39      0             -218259.64     -349.88325    
    327800   335.74789     -218749.19      0             -218256.75     -251.08005    
    327900   337.45877     -218749.68      0             -218254.73     -455.72794    
    328000   337.16708     -218752.15      0             -218257.62     -477.60303    
    328100   332.24227     -218752.28      0             -218264.98     -748.44202    
    328200   331.91415     -218753.67      0             -218266.85     -207.94834    
    328300   336.80707     -218756.95      0             -218262.95      1154.9647    
    328400   337.91273     -218748.77      0             -218253.15      372.75314    
    328500   339.73532     -218751.45      0             -218253.16     -258.36328    
    328600   334.05302     -218749.1       0             -218259.14     -144.82858    
    328700   333.91034     -218752.47      0             -218262.72     -173.60464    
    328800   334.41649     -218753.29      0             -218262.8      -345.85775    
    328900   334.20514     -218750.67      0             -218260.49     -581.12813    
    329000   341.31341     -218753.24      0             -218252.63     -798.49066    
    329100   338.64374     -218745.23      0             -218248.54     -384.51777    
    329200   334.58447     -218745.72      0             -218254.98      547.23205    
    329300   333.22329     -218750.74      0             -218262         218.64108    
    329400   334.07204     -218752.27      0             -218262.29      243.76411    
    329500   333.07077     -218748.6       0             -218260.08      34.990278    
    329600   336.20823     -218748.03      0             -218254.91     -22.166222    
    329700   334.34267     -218741.27      0             -218250.89     -940.70555    
    329800   336.01667     -218747.73      0             -218254.89      97.284154    
    329900   335.96628     -218756.6       0             -218263.83      485.23633    
    330000   332.41486     -218753.24      0             -218265.69      298.71779    
    330100   334.02809     -218751.1       0             -218261.18      281.65164    
    330200   336.7532      -218749.55      0             -218255.63     -939.70673    
    330300   338.18129     -218748.61      0             -218252.59     -322.40549    
    330400   337.36292     -218749.25      0             -218254.44      7.5605203    
    330500   333.70354     -218752.58      0             -218263.14      1096.8646    
    330600   333.44941     -218755.93      0             -218266.85     -118.7546     
    330700   331.62379     -218751.97      0             -218265.57     -920.59707    
    330800   334.47737     -218747.96      0             -218257.38      236.95633    
    330900   338.80645     -218750.53      0             -218253.6       589.82128    
    331000   336.1682      -218749.07      0             -218256        -895.95821    
    331100   334.01689     -218748.51      0             -218258.6      -311.05453    
    331200   332.96282     -218748.75      0             -218260.39     -622.46612    
    331300   334.98834     -218753.85      0             -218262.52     -544.80635    
    331400   333.23643     -218753.98      0             -218265.22     -149.66543    
    331500   334.12356     -218758.2       0             -218268.14      173.92383    
    331600   332.3109      -218754.68      0             -218267.28      135.45507    
    331700   336.84502     -218752.86      0             -218258.81     -138.0935     
    331800   336.12562     -218749.06      0             -218256.06      77.404384    
    331900   336.86555     -218752.38      0             -218258.3      -363.31388    
    332000   329.61089     -218750.24      0             -218266.79     -178.53229    
    332100   334.87267     -218759.88      0             -218268.72      1026.396     
    332200   332.56473     -218753.71      0             -218265.94     -774.64743    
    332300   334.1593      -218752.52      0             -218262.4       142.88858    
    332400   337.09518     -218753.35      0             -218258.93      43.328982    
    332500   337.38301     -218751.16      0             -218256.31     -1030.259     
    332600   336.81546     -218745.97      0             -218251.96     -749.33498    
    332700   339.31172     -218746.72      0             -218249.04      184.97426    
    332800   337.60996     -218752.76      0             -218257.58     -22.293457    
    332900   329.572       -218747.18      0             -218263.8      -46.673895    
    333000   333.67355     -218754.48      0             -218265.08      695.14653    
    333100   336.13298     -218755.6       0             -218262.59      425.4883     
    333200   340.74063     -218753.38      0             -218253.61      647.90717    
    333300   338.15051     -218748.11      0             -218252.14      965.7735     
    333400   337.43979     -218752.71      0             -218257.78     -1575.3521    
    333500   334.46012     -218750.94      0             -218260.38     -666.75712    
    333600   336.59874     -218754.22      0             -218260.52     -1745.7636    
    333700   333.63253     -218751.93      0             -218262.59     -1136.5345    
    333800   331.72964     -218752.62      0             -218266.07      564.80451    
    333900   330.49164     -218752.66      0             -218267.93      866.27029    
    334000   331.62325     -218748.24      0             -218261.84     -130.78291    
    334100   337.05696     -218749.7       0             -218255.33      537.91814    
    334200   333.32927     -218745.71      0             -218256.81     -88.516435    
    334300   336.91527     -218755.71      0             -218261.55      93.597846    
    334400   333.12149     -218759.6       0             -218271.01      835.16311    
    334500   329.42934     -218755.19      0             -218272.01      55.315988    
    334600   332.39229     -218753.68      0             -218266.15     -413.69958    
    334700   334.12494     -218750.92      0             -218260.86     -1449.3941    
    334800   336.51599     -218752.39      0             -218258.82     -486.47076    
    334900   334.40456     -218750.78      0             -218260.3       840.69811    
    335000   330.36588     -218753.73      0             -218269.18      1317.8788    
    335100   331.22376     -218756.88      0             -218271.07     -1224.1346    
    335200   333.18473     -218752.86      0             -218264.18      498.2678     
    335300   337.15131     -218753.92      0             -218259.41      463.5466     
    335400   338.24791     -218754.84      0             -218258.73      41.224599    
    335500   332.50504     -218747.86      0             -218260.17      121.38332    
    335600   333.34422     -218753.87      0             -218264.95      111.18781    
    335700   329.41832     -218755.43      0             -218272.27     -35.732156    
    335800   328.62401     -218751.11      0             -218269.12     -188.34046    
    335900   330.9934      -218745.47      0             -218260         299.74527    
    336000   337.5374      -218753.01      0             -218257.94      371.62373    
    336100   336.24567     -218753.12      0             -218259.95      1.6728418    
    336200   332.95828     -218754.78      0             -218266.43     -77.386502    
    336300   331.62595     -218754.42      0             -218268.02      828.41495    
    336400   334.5284      -218748.2       0             -218257.55      217.42487    
    336500   335.203       -218746.42      0             -218254.78      575.39583    
    336600   333.86278     -218748.62      0             -218258.94      82.117362    
    336700   333.01372     -218753.28      0             -218264.85     -155.48409    
    336800   333.53084     -218754.56      0             -218265.36     -441.66932    
    336900   334.27093     -218751.3       0             -218261.02      550.11249    
    337000   339.55865     -218748.64      0             -218250.6      -12.877306    
    337100   338.88969     -218748.66      0             -218251.6       598.39264    
    337200   332.21281     -218746.64      0             -218259.38     -251.76491    
    337300   335.66473     -218755.21      0             -218262.89      324.39644    
    337400   333.63358     -218753.06      0             -218263.71      667.42558    
    337500   338.74655     -218758.12      0             -218261.27      517.09982    
    337600   336.63972     -218747.06      0             -218253.31      107.65629    
    337700   339.61173     -218746.73      0             -218248.62      180.88404    
    337800   338.11776     -218752.03      0             -218256.11      45.823758    
    337900   335.37766     -218752.99      0             -218261.09      370.84855    
    338000   338.43009     -218759.58      0             -218263.2      -50.593414    
    338100   337.28719     -218757.02      0             -218262.31     -461.49398    
    338200   334.03697     -218747.2       0             -218257.26      215.77015    
    338300   339.38084     -218748.43      0             -218250.66     -868.82159    
    338400   336.86909     -218748.39      0             -218254.3       768.59897    
    338500   336.65477     -218757.2       0             -218263.42      655.34023    
    338600   334.04827     -218754.29      0             -218264.33     -1195.0687    
    338700   337.02736     -218757.08      0             -218262.76     -405.03709    
    338800   334.9232      -218748.24      0             -218257.01      13.643001    
    338900   337.57621     -218745.38      0             -218250.26      43.161617    
    339000   337.53862     -218750.02      0             -218254.94      504.23687    
    339100   333.61572     -218753.06      0             -218263.74     -633.5322     
    339200   333.90151     -218753.67      0             -218263.93      434.05627    
    339300   335.68438     -218754.58      0             -218262.23     -912.91615    
    339400   336.33083     -218752.09      0             -218258.78     -960.66412    
    339500   336.43994     -218747.67      0             -218254.21      59.530719    
    339600   340.72396     -218751.94      0             -218252.19      350.04585    
    339700   330.76065     -218747.08      0             -218261.95     -629.12126    
    339800   331.33818     -218752.25      0             -218266.27     -472.01501    
    339900   336.16779     -218756.55      0             -218263.49     -793.18163    
    340000   336.56778     -218751.42      0             -218257.77      1559.8202    
    340100   338.8314      -218752.44      0             -218255.48      872.21328    
    340200   335.48247     -218755.31      0             -218263.26      102.20611    
    340300   331.76933     -218757.24      0             -218270.63     -160.72383    
    340400   335.87841     -218759.37      0             -218266.73      504.8006     
    340500   336.06552     -218753.05      0             -218260.14     -202.85401    
    340600   334.30955     -218747.52      0             -218257.18     -111.07034    
    340700   337.38596     -218752.78      0             -218257.93     -1098.2949    
    340800   335.80725     -218754.84      0             -218262.3       369.78488    
    340900   333.6256      -218762.46      0             -218273.13     -243.19976    
    341000   332.54581     -218758.84      0             -218271.09     -889.66909    
    341100   332.66864     -218751.61      0             -218263.68      683.75203    
    341200   335.80982     -218751.29      0             -218258.75      74.757504    
    341300   336.00355     -218751.12      0             -218258.3       668.10161    
    341400   336.40238     -218754.88      0             -218261.48      50.658858    
    341500   331.34615     -218756.74      0             -218270.75      341.07107    
    341600   330.13203     -218753.26      0             -218269.05      20.085734    
    341700   335.85547     -218756.42      0             -218263.82     -147.05747    
    341800   335.00644     -218752.89      0             -218261.54      774.86173    
    341900   334.7174      -218749.88      0             -218258.95      504.32281    
    342000   337.59868     -218750.57      0             -218255.4       714.10986    
    342100   338.48167     -218747.27      0             -218250.81     -53.289744    
    342200   339.55676     -218750.82      0             -218252.79     -257.97716    
    342300   335.68824     -218753.96      0             -218261.6       238.12147    
    342400   329.74046     -218749.26      0             -218265.62     -632.794      
    342500   333.79919     -218753.7       0             -218264.12      507.15639    
    342600   336.14018     -218751.84      0             -218258.81      621.62219    
    342700   333.02555     -218738.16      0             -218249.71      282.62035    
    342800   339.96717     -218743.7       0             -218245.07     -248.79798    
    342900   338.57055     -218750.93      0             -218254.35     -636.66206    
    343000   339.59107     -218757.73      0             -218259.65     -410.35223    
    343100   332.76634     -218751.29      0             -218263.21     -324.26528    
    343200   335.462       -218755.06      0             -218263.04      990.23036    
    343300   337.61285     -218756.53      0             -218261.35     -109.92997    
    343400   337.88245     -218751.88      0             -218256.3      -166.90463    
    343500   338.50975     -218749.97      0             -218253.47     -169.5961     
    343600   335.20643     -218750.55      0             -218258.9       68.082402    
    343700   333.66161     -218756.32      0             -218266.93      514.4337     
    343800   329.43854     -218748.99      0             -218265.8      -790.88554    
    343900   327.41129     -218741.85      0             -218261.64     -97.018109    
    344000   335.83607     -218746.61      0             -218254.03     -855.06058    
    344100   337.43233     -218748.74      0             -218253.83     -546.27762    
    344200   335.959       -218749.25      0             -218256.49      86.631366    
    344300   335.2597      -218751.92      0             -218260.19      91.946648    
    344400   333.49545     -218754.3       0             -218265.16     -104.58925    
    344500   332.91234     -218754.62      0             -218266.33      132.03843    
    344600   336.1446      -218751.54      0             -218258.51     -261.28153    
    344700   340.55485     -218752         0             -218252.5      -72.609958    
    344800   335.80817     -218748.93      0             -218256.39      373.51366    
    344900   334.55725     -218752.85      0             -218262.15     -913.9281     
    345000   334.33702     -218753.45      0             -218263.07     -804.02963    
    345100   333.21081     -218751.61      0             -218262.88     -943.59661    
    345200   336.95245     -218752.69      0             -218258.47     -601.05936    
    345300   336.41218     -218742.2       0             -218248.78     -908.14827    
    345400   340.11641     -218744.91      0             -218246.06      103.61784    
    345500   334.88482     -218744.91      0             -218253.73     -1147.0393    
    345600   333.83082     -218749.29      0             -218259.66     -947.33724    
    345700   334.28703     -218753.19      0             -218262.89      259.17801    
    345800   330.50355     -218749.46      0             -218264.7       1645.7825    
    345900   334.4619      -218751.83      0             -218261.27      737.10939    
    346000   338.7897      -218749.64      0             -218252.73      159.37134    
    346100   338.42308     -218750.18      0             -218253.81      149.98447    
    346200   331.21484     -218747.48      0             -218261.68      1416.0665    
    346300   331.88356     -218752.42      0             -218265.64      1029.5162    
    346400   329.38959     -218747.17      0             -218264.05     -460.05267    
    346500   332.90737     -218748.34      0             -218260.06     -773.02498    
    346600   337.57958     -218749.66      0             -218254.53     -642.38511    
    346700   336.77022     -218746.39      0             -218252.44      702.40346    
    346800   338.71662     -218751.96      0             -218255.15      234.97825    
    346900   333.77696     -218753.75      0             -218264.19      804.3344     
    347000   333.47129     -218756.21      0             -218267.1       501.79994    
    347100   335.06654     -218755.72      0             -218264.27      155.40911    
    347200   337.60072     -218750.91      0             -218255.74     -315.31933    
    347300   338.6218      -218751.75      0             -218255.09     -270.71283    
    347400   337.56499     -218754.59      0             -218259.48     -585.19722    
    347500   335.78999     -218755.89      0             -218263.39      904.65714    
    347600   331.34604     -218748.83      0             -218262.84      687.24325    
    347700   336.34885     -218754.59      0             -218261.26      1393.8859    
    347800   337.32129     -218755         0             -218260.25     -146.96743    
    347900   334.95258     -218751.54      0             -218260.26      647.03467    
    348000   334.80037     -218751.43      0             -218260.37      121.52311    
    348100   334.32526     -218752         0             -218261.64      215.11396    
    348200   337.24294     -218757.66      0             -218263.02     -142.51699    
    348300   337.33248     -218758.72      0             -218263.95      418.56589    
    348400   334.43087     -218752.85      0             -218262.34      1342.2843    
    348500   338.67727     -218754.86      0             -218258.12     -91.817098    
    348600   333.80959     -218745.05      0             -218255.45      286.89596    
    348700   334.70383     -218746.53      0             -218255.61      56.71901     
    348800   331.99803     -218749.76      0             -218262.81      1124.2726    
    348900   333.35468     -218757.77      0             -218268.83      637.81355    
    349000   335.64182     -218758.67      0             -218266.38      53.035485    
    349100   337.12164     -218754.27      0             -218259.81     -531.62222    
    349200   334.58674     -218749.37      0             -218258.62     -427.11324    
    349300   336.01786     -218751.74      0             -218258.89      9.3035901    
    349400   335.75243     -218753.8       0             -218261.35      499.89429    
    349500   330.25789     -218752.3       0             -218267.9       397.33263    
    349600   332.25388     -218759.96      0             -218272.64      444.87856    
    349700   333.22775     -218754.06      0             -218265.31      48.894531    
    349800   333.42966     -218747.13      0             -218258.08      211.76662    
    349900   337.46324     -218752.31      0             -218257.35      486.47498    
    350000   335.64856     -218751.02      0             -218258.72      441.10886    
    350100   330.82113     -218751.9       0             -218266.68     -868.26442    
    350200   332.06508     -218754.94      0             -218267.89      222.11785    
    350300   336.61773     -218752.93      0             -218259.21     -393.44576    
    350400   331.95604     -218740.01      0             -218253.13     -165.90419    
    350500   337.89371     -218751.32      0             -218255.72      295.28041    
    350600   333.53507     -218751.07      0             -218261.86     -1032.9033    
    350700   334.86584     -218754.93      0             -218263.78     -1280.7491    
    350800   331.79274     -218751         0             -218264.35     -578.08233    
    350900   338.89363     -218755.41      0             -218258.35      219.2992     
    351000   336.5106      -218745.76      0             -218252.2       356.8279     
    351100   333.77222     -218744.69      0             -218255.14      1351.0381    
    351200   332.34509     -218750.8       0             -218263.34      915.84913    
    351300   334.00156     -218755.2       0             -218265.32      785.05577    
    351400   332.65782     -218750.45      0             -218262.54      5.1978005    
    351500   336.29463     -218752.08      0             -218258.83     -1080.2768    
    351600   334.65852     -218745.36      0             -218254.51     -173.24872    
    351700   337.84444     -218740.33      0             -218244.81     -439.43747    
    351800   340.41755     -218749.29      0             -218250         829.97131    
    351900   338.71332     -218754.34      0             -218257.55      127.38359    
    352000   333.8815      -218751.35      0             -218261.64     -286.60178    
    352100   336.57588     -218756.72      0             -218263.06     -892.71632    
    352200   336.76608     -218756.59      0             -218262.65      318.29999    
    352300   338.0839      -218752.37      0             -218256.5       23.948001    
    352400   341.35731     -218752.38      0             -218251.71      410.73768    
    352500   337.55584     -218751.23      0             -218256.14      439.07132    
    352600   337.33857     -218759.86      0             -218265.08     -391.0256     
    352700   335.0511      -218756.18      0             -218264.76     -16.864607    
    352800   333.32411     -218749.83      0             -218260.94     -219.93924    
    352900   340.65063     -218755.1       0             -218255.46      677.55528    
    353000   337.55054     -218746.46      0             -218251.37      634.88444    
    353100   333.54511     -218742.16      0             -218252.94      86.986351    
    353200   334.7709      -218753.78      0             -218262.77     -352.72798    
    353300   331.00653     -218751.91      0             -218266.42      641.41388    
    353400   334.94973     -218756.3       0             -218265.03     -215.70865    
    353500   335.0953      -218748.97      0             -218257.48     -1078.4917    
    353600   335.06937     -218745.71      0             -218254.25     -682.68672    
    353700   332.07493     -218744.34      0             -218257.28      615.90979    
    353800   339.42138     -218757.03      0             -218259.2       876.5122     
    353900   336.20413     -218754.91      0             -218261.79      681.95538    
    354000   335.94748     -218755.26      0             -218262.52      288.55704    
    354100   335.45085     -218751.91      0             -218259.9      -120.15171    
    354200   337.80897     -218747.98      0             -218252.51      746.13885    
    354300   340.69333     -218750.27      0             -218250.57     -463.3562     
    354400   337.83815     -218754.55      0             -218259.04     -643.12732    
    354500   333.30888     -218752.57      0             -218263.7      -117.09444    
    354600   332.61        -218751.06      0             -218263.22     -388.67067    
    354700   333.72568     -218748.95      0             -218259.46     -21.559221    
    354800   333.94941     -218743.03      0             -218253.22      364.3686     
    354900   341.88929     -218748.1       0             -218246.65      344.95725    
    355000   336.42863     -218748.21      0             -218254.76      1087.0757    
    355100   335.83219     -218754.73      0             -218262.16     -586.6639     
    355200   336.16192     -218757.78      0             -218264.73      148.99632    
    355300   336.89045     -218758.57      0             -218264.45      328.63316    
    355400   333.64241     -218749.05      0             -218259.7      -184.1462     
    355500   333.78314     -218742.58      0             -218253.02      705.90166    
    355600   335.12553     -218744.13      0             -218252.6       884.41415    
    355700   334.54866     -218754.53      0             -218263.84     -1042.3968    
    355800   331.86445     -218751.65      0             -218264.9      -9.2855438    
    355900   331.41685     -218748.17      0             -218262.08      601.62062    
    356000   337.34679     -218751.58      0             -218256.79      750.98936    
    356100   336.6646      -218747.71      0             -218253.92     -345.16177    
    356200   334.38198     -218750.94      0             -218260.5       333.17326    
    356300   332.71291     -218756.26      0             -218268.27      1252.9371    
    356400   328.83102     -218749.44      0             -218267.14      191.85537    
    356500   335.31821     -218752.19      0             -218260.37      66.52192     
    356600   339.14194     -218754.33      0             -218256.9      -1157.9909    
    356700   334.90577     -218749.06      0             -218257.84      745.01981    
    356800   336.35449     -218753.08      0             -218259.74      604.84593    
    356900   336.67383     -218754.84      0             -218261.04      810.99202    
    357000   337.60923     -218756.42      0             -218261.24      1036.9924    
    357100   330.62395     -218747         0             -218262.07      91.554742    
    357200   334.48894     -218751.4       0             -218260.8       650.62393    
    357300   343.65988     -218754.3       0             -218250.25     -261.38342    
    357400   334.44375     -218739.47      0             -218248.94      393.82702    
    357500   338.81448     -218754.22      0             -218257.27     -112.0112     
    357600   336.59417     -218756.5       0             -218262.81     -1054.552     
    357700   333.75505     -218753.24      0             -218263.72     -383.99355    
    357800   335.82576     -218754.6       0             -218262.04      638.28257    
    357900   338.67953     -218751.46      0             -218254.71      409.87307    
    358000   341.66928     -218751.69      0             -218250.56     -494.92641    
    358100   333.93034     -218746.18      0             -218256.4      -416.34918    
    358200   334.32544     -218753.53      0             -218263.17      86.414092    
    358300   336.67921     -218757.37      0             -218263.56      639.51081    
    358400   337.99794     -218756.34      0             -218260.59      453.70747    
    358500   335.86653     -218750.61      0             -218257.99      613.70492    
    358600   338.13448     -218751.14      0             -218255.2       641.67789    
    358700   338.49654     -218752.08      0             -218255.6       887.79231    
    358800   335.93958     -218754         0             -218261.28     -42.451975    
    358900   337.18805     -218762.52      0             -218267.96      284.52588    
    359000   331.05008     -218752.9       0             -218267.35      715.32366    
    359100   337.64509     -218755.52      0             -218260.3       793.3835     
    359200   336.95219     -218748.78      0             -218254.57     -877.78314    
    359300   332.91942     -218744.79      0             -218256.49     -124.40675    
    359400   336.33065     -218754.06      0             -218260.75     -121.42872    
    359500   334.26341     -218755.03      0             -218264.76      471.86689    
    359600   333.82789     -218756.24      0             -218266.61     -5.1266246    
    359700   332.68349     -218753.81      0             -218265.86     -261.82193    
    359800   335.39961     -218749.75      0             -218257.81      4.0440805    
    359900   338.10549     -218750.48      0             -218254.57      92.826932    
    360000   334.42339     -218749.02      0             -218258.51      311.16739    
    360100   332.23831     -218753.28      0             -218265.98      1185.2714    
    360200   331.18903     -218751.33      0             -218265.57      1178.4043    
    360300   337.17621     -218757.93      0             -218263.38      850.5783     
    360400   334.86581     -218751.58      0             -218260.43      552.1481     
    360500   334.78819     -218748.13      0             -218257.09     -716.44392    
    360600   338.23313     -218747.23      0             -218251.13      1277.4294    
    360700   336.82016     -218741.91      0             -218247.89      237.06719    
    360800   335.34536     -218747.83      0             -218255.98      51.686104    
    360900   333.69209     -218751.94      0             -218262.51     -1021.3015    
    361000   334.31996     -218755.17      0             -218264.82     -136.96746    
    361100   331.88072     -218751.62      0             -218264.85     -645.05176    
    361200   336.75061     -218751.57      0             -218257.65     -543.5949     
    361300   337.62074     -218746.96      0             -218251.77     -141.13379    
    361400   338.26097     -218751.83      0             -218255.69      1448.6129    
    361500   334.26727     -218751.59      0             -218261.32      799.53234    
    361600   333.73094     -218751.97      0             -218262.48      720.79799    
    361700   335.48532     -218754.41      0             -218262.34      171.14623    
    361800   336.17555     -218752.85      0             -218259.78      513.25909    
    361900   336.3366      -218746.55      0             -218253.24     -394.22266    
    362000   335.50344     -218743.11      0             -218251.03      786.37652    
    362100   339.16224     -218756.99      0             -218259.53     -116.98481    
    362200   330.99316     -218751.26      0             -218265.79     -1032.243     
    362300   336.64155     -218758.6       0             -218264.84     -126.7483     
    362400   335.56506     -218751.22      0             -218259.04     -496.44251    
    362500   336.09976     -218746.92      0             -218253.95      990.32696    
    362600   339.4765      -218750.51      0             -218252.59      725.53213    
    362700   338.27615     -218760.55      0             -218264.39      444.90509    
    362800   333.76233     -218757.78      0             -218268.25      953.114      
    362900   329.98602     -218750.12      0             -218266.12      994.97573    
    363000   334.24555     -218749.4       0             -218259.16      44.050097    
    363100   337.52469     -218750.39      0             -218255.34     -161.51632    
    363200   334.31301     -218749.37      0             -218259.03     -461.98603    
    363300   336.51082     -218757.67      0             -218264.1      -1471.3639    
    363400   336.00815     -218757.79      0             -218264.96     -973.97251    
    363500   331.74577     -218749.2       0             -218262.63     -366.34855    
    363600   334.43825     -218749.59      0             -218259.06      202.92252    
    363700   336.62166     -218748.68      0             -218254.96      443.88734    
    363800   338.04166     -218747.63      0             -218251.82      304.6757     
    363900   336.09215     -218751.25      0             -218258.3       750.481      
    364000   332.42227     -218753.69      0             -218266.12     -77.65789     
    364100   338.40658     -218762.39      0             -218266.05      301.89431    
    364200   332.618       -218750.42      0             -218262.56      154.45845    
    364300   338.0351      -218749.88      0             -218254.07      303.13083    
    364400   337.2126      -218748.07      0             -218253.47      942.37605    
    364500   336.65662     -218751.12      0             -218257.34     -229.6804     
    364600   336.53302     -218753.67      0             -218260.07     -669.72981    
    364700   333.78397     -218752.79      0             -218263.23      535.34264    
    364800   337.83799     -218760.65      0             -218265.13     -310.77565    
    364900   332.33885     -218754.78      0             -218267.34      193.4478     
    365000   332.98374     -218752.93      0             -218264.53     -72.312747    
    365100   334.69023     -218749.35      0             -218258.46     -556.30392    
    365200   335.28054     -218747.13      0             -218255.37      168.42589    
    365300   336.87536     -218750.51      0             -218256.41      8.0615174    
    365400   332.76336     -218754.88      0             -218266.81      1684.4729    
    365500   336.87006     -218763.94      0             -218269.84      612.90772    
    365600   333.44688     -218754.34      0             -218265.27     -154.1255     
    365700   335.7606      -218752.13      0             -218259.67      392.27882    
    365800   335.07126     -218750.61      0             -218259.15      214.56498    
    365900   332.30473     -218747.91      0             -218260.51     -470.85226    
    366000   333.08141     -218752.97      0             -218264.44     -1225.1178    
    366100   329.60822     -218757.76      0             -218274.32     -897.43158    
    366200   329.00886     -218753.98      0             -218271.42      725.67432    
    366300   335.35556     -218756.61      0             -218264.74     -506.34277    
    366400   333.75265     -218750.74      0             -218261.22      721.85903    
    366500   334.03437     -218749.39      0             -218259.45     -303.31654    
    366600   335.21273     -218752.06      0             -218260.4      -432.93266    
    366700   330.32187     -218751.7       0             -218267.21      11.383091    
    366800   334.13823     -218759.99      0             -218269.91     -265.92087    
    366900   336.03397     -218756.9       0             -218264.04      486.85652    
    367000   336.512       -218749.32      0             -218255.75      362.30067    
    367100   336.23922     -218750.22      0             -218257.05     -102.11606    
    367200   333.48186     -218749.52      0             -218260.39      342.44634    
    367300   334.74261     -218755.42      0             -218264.45     -1309.5338    
    367400   330.02163     -218753.58      0             -218269.53     -1205.1016    
    367500   329.93921     -218760.7       0             -218276.77      53.085737    
    367600   331.3135      -218757.9       0             -218271.96     -244.34627    
    367700   338.69171     -218760         0             -218263.24      395.66212    
    367800   335.75353     -218752.24      0             -218259.78     -100.95352    
    367900   335.82697     -218749.73      0             -218257.17      334.286      
    368000   335.41451     -218749.44      0             -218257.48      1168.1987    
    368005   335.0174      -218749.15      0             -218257.78      833.37093    
Loop time of 3318.61 on 8 procs for 345000 steps with 11348 atoms

Performance: 8.982 ns/day, 2.672 hours/ns, 103.959 timesteps/s
96.6% CPU use with 8 MPI tasks x 1 OpenMP threads

MPI task timing breakdown:
Section |  min time  |  avg time  |  max time  |%varavg| %total
---------------------------------------------------------------
Pair    | 1042.7     | 1079.5     | 1118.1     |  75.9 | 32.53
Kspace  | 1902.3     | 1942.4     | 1981.2     |  58.9 | 58.53
Neigh   | 131.77     | 135.18     | 139.83     |  21.4 |  4.07
Comm    | 102.69     | 106.52     | 108.96     |  19.6 |  3.21
Output  | 10.953     | 11.282     | 11.332     |   3.7 |  0.34
Modify  | 31.985     | 32.269     | 32.876     |   4.9 |  0.97
Other   |            | 11.42      |            |       |  0.34

Nlocal:         1418.5 ave        1445 max        1400 min
Histogram: 1 2 2 0 0 0 1 0 1 1
Nghost:           3917 ave        3932 max        3898 min
Histogram: 1 1 0 1 0 1 1 1 0 2
Neighs:         105448 ave      110438 max      102965 min
Histogram: 2 1 2 1 0 1 0 0 0 1

Total # of neighbors = 843585
Ave neighs/atom = 74.337769
Neighbor list builds = 53261
Dangerous builds = 0

undump              1
unfix               1
unfix               RDF
uncompute           myRDF

print "Temp = ${Tmp}"
Temp = 335

variable Tmp delete
next a
jump SELF loop_start
print "loop body"
loop body
variable Tmp equal (${a}-1)*5+300
variable Tmp equal (9-1)*5+300

reset_timestep 0

velocity	all create 0.00001 87287

pair_style buck/coul/long 8.0
pair_coeff 1 1 0.0        1.0      0.0
pair_coeff 2 2 2029.2204  0.343645 192.58000
pair_coeff 3 3 0.0        1.0      0.0
pair_coeff 4 4 0.0        1.0      0.0
pair_coeff 1 2 41051.9380 0.151160 0.0000
pair_coeff 1 3 0.0        1.0      0.0
pair_coeff 1 4 0.0        1.0      0.0
pair_coeff 2 3 26655.4720 0.181968 86.5860
pair_coeff 2 4 17943.3840 0.226627 127.6500
pair_coeff 3 4 0.0        1.0      0.0
kspace_style pppm 1.0e-4

neighbor	0.3 bin
neigh_modify	every 1 delay 0 check yes

log log.lammps00_${Tmp}
log log.lammps00_340
