
timestep 0.001

min_style cg
minimize 1.0e-4 1.0e-6 1000 10000
PPPM initialization ...
WARNING: System is not charge neutral, net charge = -578.4 (src/kspace.cpp:327)
  using 12-bit tables for long-range coulomb (src/kspace.cpp:342)
  G vector (1/distance) = 0.36902811
  grid = 54 48 64
  stencil order = 5
  estimated absolute RMS force accuracy = 0.0017759848
  estimated relative force accuracy = 0.00012333532
  using double precision FFTW3
  3d grid and FFT values/proc = 34336 20736
Generated 0 of 6 mixed pair_coeff terms from geometric mixing rule
Neighbor list info ...
  update every 1 steps, delay 0 steps, check yes
  max neighbors/atom: 2000, page size: 100000
  master list distance cutoff = 8.3
  ghost atom cutoff = 8.3
  binsize = 4.15, bins = 14 12 18
  1 neighbor lists, perpetual/occasional/extra = 1 0 0
  (1) pair buck/coul/long, perpetual
      attributes: half, newton on
      pair build: half/bin/atomonly/newton
      stencil: half/bin/3d
      bin: standard
Per MPI rank memory allocation (min/avg/max) = 8.305 | 8.306 | 8.307 Mbytes
   Step          Temp          E_pair         E_mol          TotEng         Press     
         0   1e-05         -218752.6       0             -218752.6      -3357.6432    
         5   1e-05         -219147.68      0             -219147.68     -3869.3095    
Loop time of 0.115927 on 8 procs for 5 steps with 11348 atoms

97.8% CPU use with 8 MPI tasks x 1 OpenMP threads

Minimization stats:
  Stopping criterion = energy tolerance
  Energy initial, next-to-last, final = 
     -218752.600845754  -219126.237266405  -219147.678738159
  Force two-norm initial, final = 191.45097 35.027781
  Force max component initial, final = 6.1010823 2.1083097
  Final line search alpha, max atom move = 0.043037315 0.090735987
  Iterations, force evaluations = 5 10

MPI task timing breakdown:
Section |  min time  |  avg time  |  max time  |%varavg| %total
---------------------------------------------------------------
Pair    | 0.035106   | 0.044342   | 0.058697   |   3.9 | 38.25
Kspace  | 0.051245   | 0.066015   | 0.075397   |   3.3 | 56.95
Neigh   | 0.0021852  | 0.0025604  | 0.0029071  |   0.6 |  2.21
Comm    | 0.0017854  | 0.0018771  | 0.0019512  |   0.1 |  1.62
Output  | 0          | 0          | 0          |   0.0 |  0.00
Modify  | 0          | 0          | 0          |   0.0 |  0.00
Other   |            | 0.001132   |            |       |  0.98

Nlocal:         1418.5 ave        1447 max        1392 min
Histogram: 1 1 1 0 2 1 0 0 0 2
Nghost:        3912.25 ave        3934 max        3887 min
Histogram: 2 0 1 0 0 0 1 2 1 1
Neighs:         105300 ave      109915 max      101891 min
Histogram: 1 1 0 2 1 1 1 0 0 1

Total # of neighbors = 842399
Ave neighs/atom = 74.233257
Neighbor list builds = 1
Dangerous builds = 0

fix                 1 all npt temp ${Tmp} ${Tmp} 0.1 iso 1.0 1.0 1.0
fix                 1 all npt temp 330 ${Tmp} 0.1 iso 1.0 1.0 1.0
fix                 1 all npt temp 330 330 0.1 iso 1.0 1.0 1.0
dump                1 all atom 100 dump00_${Tmp}.adp
dump                1 all atom 100 dump00_330.adp
thermo              100
run                 23000
PPPM initialization ...
  using 12-bit tables for long-range coulomb (src/kspace.cpp:342)
  G vector (1/distance) = 0.36902811
  grid = 54 48 64
  stencil order = 5
  estimated absolute RMS force accuracy = 0.0017759848
  estimated relative force accuracy = 0.00012333532
  using double precision FFTW3
  3d grid and FFT values/proc = 34336 20736
Generated 0 of 6 mixed pair_coeff terms from geometric mixing rule
Per MPI rank memory allocation (min/avg/max) = 7.18 | 7.181 | 7.182 Mbytes
   Step          Temp          E_pair         E_mol          TotEng         Press          Volume    
         5   1e-05         -219147.68      0             -219147.68     -3869.3095      190015.97    
       100   36.682714     -219196.34      0             -219142.54      1152.2969      189066.23    
       200   39.284222     -219185.05      0             -219127.43     -488.83401      189225.93    
       300   44.229304     -219174.62      0             -219109.75      244.21714      189072.87    
       400   53.047783     -219164.54      0             -219086.74     -295.06482      189155.26    
       500   60.464088     -219148.35      0             -219059.67     -203.79068      188999.98    
       600   73.18181      -219134.07      0             -219026.74      228.8171       188779.75    
       700   86.828539     -219113.49      0             -218986.14      63.146187      188795.5     
       800   103.56003     -219090.3       0             -218938.41     -382.15706      188705.8     
       900   122.36545     -219062.24      0             -218882.76      802.94937      188372.84    
      1000   145.07542     -219028.12      0             -218815.34     -904.92931      188674.35    
      1100   168.63248     -218987.29      0             -218739.96      1092.0165      188624.96    
      1200   199.28703     -218946.26      0             -218653.96     -11.666527      188949.26    
      1300   228.42915     -218895.44      0             -218560.4      -536.12999      189318.79    
      1400   262.95224     -218849.32      0             -218463.65      627.31666      189380.81    
      1500   293.03174     -218797.39      0             -218367.6       44.892632      189659.04    
      1600   323.52768     -218755.14      0             -218280.62      23.434379      190410.49    
      1700   337.86593     -218718.09      0             -218222.54      817.5428       190518.13    
      1800   344.2375      -218706.24      0             -218201.35     -337.95328      190520.42    
      1900   342.50746     -218726.44      0             -218224.08     -552.33421      190409.88    
      2000   328.43726     -218746.28      0             -218264.56      749.2592       190274.04    
      2100   314.27758     -218751.94      0             -218290.98     -945.67287      190550.7     
      2200   319.9566      -218756.7       0             -218287.42      316.60752      190188.24    
      2300   334.25023     -218750.63      0             -218260.38     -782.3439       190052.07    
      2400   333.05482     -218723.46      0             -218234.97     -373.69926      189814.5     
      2500   337.91524     -218723.65      0             -218228.03      842.62597      189427.15    
      2600   332.41843     -218731.07      0             -218243.51     -622.50385      189699.77    
      2700   326.67731     -218748.43      0             -218269.29     -624.81748      189450.05    
      2800   323.14697     -218758.07      0             -218284.11     -881.20912      189387.56    
      2900   320.23424     -218747.96      0             -218278.27      1227.4809      188978.95    
      3000   332.59632     -218742.06      0             -218254.24     -516.67168      189462.05    
      3100   337.42869     -218733.94      0             -218239.03      284.31478      189636.26    
      3200   336.53008     -218733.57      0             -218239.98     -71.926425      189961.61    
      3300   328.60443     -218739.08      0             -218257.11     -38.062698      189910.42    
      3400   324.94321     -218747.78      0             -218271.18     -459.88111      190015.02    
      3500   323.15741     -218747.38      0             -218273.4      -317.39064      190131.53    
      3600   329.56279     -218745.48      0             -218262.11     -162.99476      190150.38    
      3700   332.08653     -218733.9       0             -218246.83      18.168701      190356.7     
      3800   336.83183     -218737.01      0             -218242.97     -231.46605      190226.82    
      3900   332.8284      -218739.67      0             -218251.51      144.20496      190117.07    
      4000   326.83248     -218744.6       0             -218265.23      158.05592      190063.68    
      4100   325.81732     -218750.04      0             -218272.16     -55.705473      190184.36    
      4200   324.33008     -218747.41      0             -218271.71     -417.29336      189921.31    
      4300   328.40813     -218742.4       0             -218260.72     -81.178349      189730.05    
      4400   334.64958     -218738.53      0             -218247.7      -393.29748      189841.57    
      4500   335.48973     -218740.38      0             -218248.31      517.38907      189696.72    
      4600   327.84804     -218739.34      0             -218258.48     -646.46147      189896.88    
      4700   327.17908     -218749.9       0             -218270.02      471.11809      189669.73    
      4800   323.91772     -218748.09      0             -218273         816.12328      189460.33    
      4900   324.80113     -218740.77      0             -218264.38     -43.168475      189532.34    
      5000   329.18        -218734.85      0             -218252.04     -803.31171      189728.32    
      5100   333.78467     -218737.29      0             -218247.73      458.84205      189660.89    
      5200   335.1572      -218746.49      0             -218254.91      799.56161      189556.13    
      5300   330.32688     -218748.72      0             -218264.23     -1043.6336      189990.79    
      5400   328.57084     -218752.33      0             -218270.41      237.3056       189912.21    
      5500   327.82267     -218748.34      0             -218267.52     -294.11122      190158.91    
      5600   331.4795      -218745.21      0             -218259.03      880.94718      190074.27    
      5700   331.74921     -218735.83      0             -218249.25     -526.64066      190300.07    
      5800   337.69485     -218744.02      0             -218248.71      429.94829      190244.61    
      5900   331.48895     -218745.38      0             -218259.18     -265.34777      190129.89    
      6000   324.1034      -218746.01      0             -218270.64      258.56805      189849.7     
      6100   322.42306     -218742.44      0             -218269.53     -920.79866      190219.87    
      6200   328.43446     -218743.53      0             -218261.81      1376.2174      189749.42    
      6300   332.57864     -218738.42      0             -218250.63     -740.81432      190067.59    
      6400   331.32838     -218737.29      0             -218251.33      452.70975      189728.78    
      6500   330.49763     -218742.61      0             -218257.86     -752.88716      189631.45    
      6600   324.63291     -218741.36      0             -218265.21      420.22171      189675.31    
      6700   328.20372     -218748.9       0             -218267.51      51.496221      189594.6     
      6800   327.4935      -218744.92      0             -218264.58     -119.5984       189565.31    
      6900   330.89249     -218742.45      0             -218257.13      14.350645      189523.75    
      7000   333.54908     -218743.1       0             -218253.88      25.776361      189359.33    
      7100   331.99232     -218744.19      0             -218257.25     -327.70508      189653.89    
      7200   329.03808     -218746.45      0             -218263.84      164.55859      189909.94    
      7300   328.45319     -218749.77      0             -218268.03     -71.195833      190111.89    
      7400   328.32693     -218747.99      0             -218266.43     -232.12068      190149.47    
      7500   332.88821     -218748         0             -218259.75      1006.2051      189921.59    
      7600   331.9272      -218737.92      0             -218251.08     -212.71686      190411.15    
      7700   332.57087     -218738.48      0             -218250.7       431.56012      190364.97    
      7800   329.85136     -218741.11      0             -218257.31     -909.61097      190197.99    
      7900   327.50148     -218746.46      0             -218266.11      123.76634      190001.94    
      8000   324.12212     -218743.45      0             -218268.05     -1118.4626      190209.32    
      8100   326.21165     -218741.54      0             -218263.08     -1476.3439      189912.05    
      8200   331.8237      -218741.96      0             -218255.27      792.70652      189670.71    
      8300   332.24772     -218740.24      0             -218252.93     -292.45602      189988.88    
      8400   331.59309     -218744.73      0             -218258.38      1853.7699      189612.3     
      8500   329.93806     -218746.76      0             -218262.84     -1459.518       189888.29    
      8600   330.47789     -218751.02      0             -218266.3      -537.3526       189411.2     
      8700   330.32953     -218747.65      0             -218263.15     -1174.805       189509.77    
      8800   330.11312     -218743.59      0             -218259.41      349.84588      189511.71    
      8900   330.23206     -218740.14      0             -218255.78      531.4986       189739.01    
      9000   330.46596     -218742.05      0             -218257.35      435.28243      189729.97    
      9100   327.14077     -218742.42      0             -218262.6      -702.58185      189881.05    
      9200   328.08658     -218748.31      0             -218267.1       249.35516      189736.2     
      9300   326.04909     -218744.42      0             -218266.2      -98.224563      190017.47    
      9400   331.5755      -218747.09      0             -218260.77      462.26354      189970.53    
      9500   330.33632     -218739.52      0             -218255.01      28.7548        190084.52    
      9600   330.36467     -218740.23      0             -218255.68      192.2577       189817.75    
      9700   331.24436     -218746.24      0             -218260.4      -495.64765      189965.84    
      9800   326.37101     -218744.47      0             -218265.78     -274.43523      190050.52    
      9900   325.26788     -218743.26      0             -218266.18     -847.54505      190199.49    
     10000   327.33016     -218743.12      0             -218263.02      611.25646      189842.32    
     10100   332.33559     -218743.22      0             -218255.78     -1562.757       190173.32    
     10200   331.98083     -218741.36      0             -218254.44     -250.0656       189567.77    
     10300   330.20887     -218742.08      0             -218257.76     -1183.5369      189875.28    
     10400   331.04722     -218751.99      0             -218266.44     -592.39916      189487.83    
     10500   324.29988     -218747.55      0             -218271.9      -617.45301      189589.78    
     10600   327.19041     -218747.23      0             -218267.34     -1397.3369      189698.53    
     10700   330.54482     -218742.83      0             -218258.01     -1158.2484      189437.09    
     10800   336.70355     -218745.08      0             -218251.24     -384.68272      189595.32    
     10900   333.67177     -218745.81      0             -218256.41      480.64635      189461.15    
     11000   330.59177     -218749.09      0             -218264.21     -719.78198      190083.07    
     11100   324.3347      -218747.04      0             -218271.33      215.00684      190154.46    
     11200   327.24303     -218747.48      0             -218267.51      226.02495      190125.31    
     11300   332.22172     -218744.59      0             -218257.32      22.156364      190191.36    
     11400   334.77989     -218741.2       0             -218250.17     -297.69454      190208.18    
     11500   331.6143      -218738.79      0             -218252.41     -115.81624      190145.57    
     11600   329.87358     -218746.55      0             -218262.72     -523.78616      190009.71    
     11700   327.99204     -218751.05      0             -218269.98      96.336711      190073.72    
     11800   325.21862     -218747.41      0             -218270.4       526.01647      189896.75    
     11900   328.89823     -218745.27      0             -218262.87     -325.9518       189921.21    
     12000   332.01032     -218740.03      0             -218253.07     -20.01875       189862.31    
     12100   333.23843     -218739.76      0             -218250.99      395.52821      189829.06    
     12200   332.41233     -218745.67      0             -218258.12      714.64826      189651.82    
     12300   328.53795     -218748.9       0             -218267.03     -222.93923      189773.72    
     12400   325.62381     -218750.41      0             -218272.82     -349.5217       189866.63    
     12500   328.07972     -218750.35      0             -218269.15     -444.48872      189678.77    
     12600   330.3501      -218742.64      0             -218258.11      348.77074      189533.16    
     12700   332.3543      -218736.21      0             -218248.74      588.83799      189938.73    
     12800   336.1562      -218745.17      0             -218252.13      233.9833       189892.72    
     12900   328.85132     -218745.15      0             -218262.82     -134.53316      189834.3     
     13000   325.82018     -218747.16      0             -218269.28     -732.36206      190048.62    
     13100   329.94381     -218753.12      0             -218269.19     -1275.3221      190006.72    
     13200   326.73521     -218741.03      0             -218261.8      -294.48131      190043.06    
     13300   332.37476     -218740.37      0             -218252.87     -1018.4843      190133       
     13400   335.89609     -218744.59      0             -218251.92     -1291.1954      190184.87    
     13500   327.67639     -218738.63      0             -218258.03      61.375119      190155.11    
     13600   324.68591     -218743.01      0             -218266.79     -404.61153      189913.85    
     13700   325.38439     -218745.41      0             -218268.17     -1131.9014      190065.95    
     13800   328.58757     -218748.01      0             -218266.06      1333.8266      189504.26    
     13900   331.26565     -218743.21      0             -218257.34     -725.07107      189950.92    
     14000   332.67097     -218740.96      0             -218253.03      230.68251      189637.12    
     14100   332.5173      -218741.36      0             -218253.66     -1198.1099      189816.14    
     14200   330.29853     -218746.11      0             -218261.66      790.06668      189574.09    
     14300   327.52459     -218749.58      0             -218269.19     -374.59645      189870.22    
     14400   325.09932     -218749.11      0             -218272.28      1677.0063      189377.38    
     14500   330.83783     -218747.01      0             -218261.76     -301.64611      189781.49    
     14600   334.13807     -218741.85      0             -218251.76     -405.2061       189899.82    
     14700   334.93419     -218742.74      0             -218251.49      190.6985       189721.89    
     14800   332.47423     -218747.71      0             -218260.06      379.06598      189741.45    
     14900   327.49481     -218750.57      0             -218270.23     -498.79158      189888.28    
     15000   328.71693     -218753.73      0             -218271.59      191.00547      189887.61    
     15100   330.10307     -218748.22      0             -218264.05      276.66617      190069.86    
     15200   335.78547     -218746.38      0             -218253.87      43.73821       190172.83    
     15300   333.99197     -218740.11      0             -218250.24     -346.90836      190066.91    
     15400   331.46689     -218741.39      0             -218255.22     -1267.4123      190026.6     
     15500   331.87139     -218750.15      0             -218263.38     -561.24736      189942.96    
     15600   327.23801     -218749.49      0             -218269.53     -860.99751      190049.49    
     15700   329.75628     -218752.42      0             -218268.76      680.28341      189826.26    
     15800   328.73402     -218742.78      0             -218260.62      327.62978      189838.9     
     15900   331.56198     -218739.3       0             -218252.99      954.06785      189752.46    
     16000   332.26678     -218740.74      0             -218253.4      -452.72539      189595.53    
     16100   332.58773     -218747.47      0             -218259.66     -140.19025      189735.91    
     16200   325.60279     -218745         0             -218267.44      59.64187       189847.85    
     16300   326.34776     -218748.11      0             -218269.45     -329.30775      189863.73    
     16400   329.98246     -218750.07      0             -218266.08      542.62243      189587.33    
     16500   329.64569     -218741.25      0             -218257.75      200.46967      189923.89    
     16600   329.79461     -218735.23      0             -218251.51     -302.24935      190220.64    
     16700   334.7196      -218744.05      0             -218253.12     -1114.0059      190291.48    
     16800   326.60882     -218741.97      0             -218262.93      708.61475      190008.6     
     16900   325.91436     -218746.79      0             -218268.77      106.41008      190126.49    
     17000   330.27819     -218752.19      0             -218267.77      727.01404      190069.57    
     17100   331.23731     -218746.85      0             -218261.02      843.58314      190004.93    
     17200   331.36497     -218740.01      0             -218253.99      286.09141      190014.97    
     17300   333.14604     -218742.07      0             -218253.44      1365.4099      189857.23    
     17400   332.38612     -218746.01      0             -218258.5      -57.182361      189994.3     
     17500   328.36161     -218750.6       0             -218268.99      1329.5005      189527.69    
     17600   326.8464      -218750.82      0             -218271.43     -162.22795      189733.42    
     17700   328.57726     -218747.07      0             -218265.14     -822.42899      189892.17    
     17800   332.92741     -218743.41      0             -218255.1      -171.32232      189852.14    
     17900   332.46864     -218738.3       0             -218250.67      438.84512      189749.28    
     18000   330.98606     -218742.06      0             -218256.6      -671.1099       189844.8     
     18100   331.89062     -218753.87      0             -218267.08      319.67767      189629.69    
     18200   326.5212      -218751.56      0             -218272.65      39.274017      189707.77    
     18300   328.02549     -218748.93      0             -218267.82      527.40597      189785.52    
     18400   331.10269     -218742.56      0             -218256.93     -60.950173      190002.58    
     18500   334.86505     -218742.65      0             -218251.5      -180.84247      189977.72    
     18600   332.90493     -218742.76      0             -218254.49     -271.89393      190105.47    
     18700   330.99271     -218748.41      0             -218262.94      550.0237       190019.21    
     18800   329.86048     -218751.91      0             -218268.1      -174.58413      190207.85    
     18900   329.15858     -218749.5       0             -218266.72     -69.99458       190231.13    
     19000   327.84102     -218740.76      0             -218259.91     -875.20013      190167.52    
     19100   332.20449     -218740.58      0             -218253.33      1171.8963      189899.12    
     19200   335.04616     -218744.53      0             -218253.11     -253.34485      189748.6     
     19300   333.04533     -218749.59      0             -218261.11     -152.65461      189606.6     
     19400   325.40052     -218745         0             -218267.73     -1157.2488      190233.45    
     19500   324.28683     -218745.71      0             -218270.07     -675.53918      189795.66    
     19600   327.88425     -218742.98      0             -218262.06     -219.05706      190017.85    
     19700   333.69053     -218742.97      0             -218253.54      677.2705       189996.75    
     19800   335.44198     -218743.54      0             -218251.55     -1298.198       190009.14    
     19900   329.49184     -218742.69      0             -218259.42     -1029.7742      189801.56    
     20000   327.26238     -218748.46      0             -218268.46      415.69311      189709.17    
     20100   328.73188     -218750.93      0             -218268.78     -623.31377      189985.04    
     20200   328.31027     -218745.61      0             -218264.07     -415.4963       189846.4     
     20300   331.13081     -218742.54      0             -218256.86     -568.23548      189827.12    
     20400   333.92019     -218741.23      0             -218251.47     -193.00414      189906.13    
     20500   333.37341     -218744.17      0             -218255.21     -765.53645      190064.58    
     20600   330.91803     -218749.74      0             -218264.38      51.686943      189705.25    
     20700   327.41991     -218748.51      0             -218268.28      533.99835      189826.98    
     20800   326.77292     -218746.09      0             -218266.8      -407.03771      189904.54    
     20900   328.65539     -218742.22      0             -218260.17     -109.65323      190033.46    
     21000   334.7778      -218746.03      0             -218255.01     -852.58866      190092.61    
     21100   331.26238     -218740.51      0             -218254.64      146.39021      189938.64    
     21200   332.09186     -218745.9       0             -218258.82     -47.760796      189857.78    
     21300   326.29299     -218744.1       0             -218265.52     -430.38265      189887.72    
     21400   329.57222     -218751         0             -218267.61     -412.65504      189919.08    
     21500   329.68809     -218748.41      0             -218264.85     -597.8343       190021.83    
     21600   331.6425      -218743.55      0             -218257.12      229.41055      190207.19    
     21700   332.34733     -218740.48      0             -218253.02      1296.4987      190031.61    
     21800   330.226       -218739.16      0             -218254.81     -209.80975      190157.13    
     21900   329.39502     -218745.02      0             -218261.89      339.2195       189906.91    
     22000   327.47141     -218747.61      0             -218267.3      -230.28205      189861.12    
     22100   329.0969      -218751.43      0             -218268.74      515.24619      189612.11    
     22200   328.82719     -218743.85      0             -218261.55     -159.51197      190059.68    
     22300   332.18696     -218742.93      0             -218255.7       100.84553      189698.31    
     22400   332.42855     -218740.61      0             -218253.03     -1512.9822      189909.86    
     22500   328.65567     -218741.33      0             -218259.29     -458.59852      189833.2     
     22600   325.75053     -218745.29      0             -218267.51      55.181422      189633.82    
     22700   324.28416     -218744.66      0             -218269.03     -120.41675      189911.9     
     22800   330.08773     -218748.34      0             -218264.2      -266.10075      190063.39    
     22900   331.15617     -218742.65      0             -218256.94      654.06541      189830.96    
     23000   334.55892     -218744.35      0             -218253.65      91.111321      189889.51    
     23005   331.57648     -218739.93      0             -218253.6      -388.62031      189898.33    
Loop time of 298.73 on 8 procs for 23000 steps with 11348 atoms

Performance: 6.652 ns/day, 3.608 hours/ns, 76.993 timesteps/s
97.3% CPU use with 8 MPI tasks x 1 OpenMP threads

MPI task timing breakdown:
Section |  min time  |  avg time  |  max time  |%varavg| %total
---------------------------------------------------------------
Pair    | 71.699     | 74.94      | 77.495     |  20.3 | 25.09
Kspace  | 138.4      | 141.25     | 144.81     |  16.1 | 47.28
Neigh   | 8.9438     | 9.2565     | 9.5635     |   6.0 |  3.10
Comm    | 4.4629     | 4.5069     | 4.5318     |   1.0 |  1.51
Output  | 0.74667    | 0.74776    | 0.75468    |   0.3 |  0.25
Modify  | 53.109     | 54.594     | 55.919     |  11.7 | 18.28
Other   |            | 13.44      |            |       |  4.50

Nlocal:         1418.5 ave        1437 max        1399 min
Histogram: 1 0 1 2 1 0 1 0 0 2
Nghost:        3915.12 ave        3931 max        3898 min
Histogram: 2 0 0 1 0 2 0 0 1 2
Neighs:         105298 ave      109124 max      102951 min
Histogram: 2 0 2 1 1 1 0 0 0 1

Total # of neighbors = 842388
Ave neighs/atom = 74.232288
Neighbor list builds = 3606
Dangerous builds = 0
unfix 1

timestep 0.001
fix                 1 all nvt temp ${Tmp} ${Tmp} 0.1
fix                 1 all nvt temp 330 ${Tmp} 0.1
fix                 1 all nvt temp 330 330 0.1
compute             myRDF all rdf 100
fix                 RDF all ave/time 100 1 100 c_myRDF[*] file lammps00_${Tmp}.rdf mode vector
fix                 RDF all ave/time 100 1 100 c_myRDF[*] file lammps00_330.rdf mode vector
run                 345000
PPPM initialization ...
  using 12-bit tables for long-range coulomb (src/kspace.cpp:342)
  G vector (1/distance) = 0.36916879
  grid = 54 48 64
  stencil order = 5
  estimated absolute RMS force accuracy = 0.0017717501
  estimated relative force accuracy = 0.00012304124
  using double precision FFTW3
  3d grid and FFT values/proc = 34336 20736
Generated 0 of 6 mixed pair_coeff terms from geometric mixing rule
Neighbor list info ...
  update every 1 steps, delay 0 steps, check yes
  max neighbors/atom: 2000, page size: 100000
  master list distance cutoff = 8.3
  ghost atom cutoff = 8.3
  binsize = 4.15, bins = 14 12 18
  2 neighbor lists, perpetual/occasional/extra = 1 1 0
  (1) pair buck/coul/long, perpetual
      attributes: half, newton on
      pair build: half/bin/atomonly/newton
      stencil: half/bin/3d
      bin: standard
  (2) compute rdf, occasional, copy from (1)
      attributes: half, newton on
      pair build: copy
      stencil: none
      bin: none
Per MPI rank memory allocation (min/avg/max) = 8.236 | 8.237 | 8.238 Mbytes
   Step          Temp          E_pair         E_mol          TotEng         Press     
     23005   331.57648     -218739.93      0             -218253.61     -390.60393    
     23100   333.10989     -218744.41      0             -218255.84      254.68944    
     23200   329.4192      -218747.89      0             -218264.73     -242.28559    
     23300   328.21209     -218747.28      0             -218265.89      95.640617    
     23400   331.6464      -218749.64      0             -218263.21      346.6425     
     23500   333.43981     -218748.98      0             -218259.92      582.87904    
     23600   333.48059     -218745.11      0             -218255.99      198.37279    
     23700   334.70343     -218737.9       0             -218246.98     -116.80906    
     23800   335.29546     -218740.19      0             -218248.41      100.09053    
     23900   330.31976     -218742.47      0             -218257.99      1155.0354    
     24000   328.23752     -218742.06      0             -218260.63     -1.8002799    
     24100   329.23575     -218746.85      0             -218263.96     -967.47047    
     24200   327.81267     -218745.65      0             -218264.84     -642.32366    
     24300   327.72472     -218744.85      0             -218264.17     -633.24818    
     24400   329.22782     -218739.96      0             -218257.08     -213.61635    
     24500   334.55954     -218743.17      0             -218252.47     -462.00996    
     24600   331.81891     -218742.42      0             -218255.74      618.73241    
     24700   327.93011     -218744.95      0             -218263.97     -688.4639     
     24800   329.28481     -218747.64      0             -218264.67     -88.830541    
     24900   327.12716     -218742.23      0             -218262.43     -536.81476    
     25000   331.18844     -218743.5       0             -218257.74      509.34892    
     25100   333.86886     -218741.26      0             -218251.57     -74.823598    
     25200   333.38429     -218736.25      0             -218247.27      328.87653    
     25300   334.17695     -218745.73      0             -218255.59     -585.00428    
     25400   331.03662     -218747.79      0             -218262.25     -573.06677    
     25500   325.81621     -218743.32      0             -218265.44     -256.37431    
     25600   331.35543     -218749.14      0             -218263.14     -425.24091    
     25700   332.55915     -218743.65      0             -218255.88     -368.50281    
     25800   332.45136     -218740.09      0             -218252.47      451.15038    
     25900   327.74941     -218739.2       0             -218258.49     -359.4284     
     26000   329.65691     -218750.59      0             -218267.07      244.57302    
     26100   328.34139     -218746.93      0             -218265.34     -398.1873     
     26200   329.22868     -218743.21      0             -218260.32     -231.56459    
     26300   330.10406     -218740.05      0             -218255.88      320.80756    
     26400   333.32942     -218743.23      0             -218254.33     -696.99336    
     26500   332.20782     -218749.04      0             -218261.79      497.74867    
     26600   328.78539     -218750.08      0             -218267.84     -708.97442    
     26700   328.28806     -218748.19      0             -218266.68      397.19208    
     26800   331.12463     -218744.48      0             -218258.82     -34.614756    
     26900   332.62904     -218743.79      0             -218255.92     -393.87694    
     27000   332.86732     -218745.58      0             -218257.36     -111.05955    
     27100   327.87701     -218742.46      0             -218261.56      182.17663    
     27200   329.46043     -218745.95      0             -218262.72     -979.05252    
     27300   331.6267      -218749.24      0             -218262.84     -509.83189    
     27400   330.30943     -218745.61      0             -218261.14      20.4815      
     27500   330.70317     -218745.27      0             -218260.23     -701.10309    
     27600   328.39094     -218742.86      0             -218261.2       541.03402    
     27700   331.32073     -218749.56      0             -218263.61      284.53779    
     27800   328.81167     -218751.41      0             -218269.13     -286.43677    
     27900   323.31087     -218744.87      0             -218270.67      224.55684    
     28000   329.1787      -218744.34      0             -218261.53      1634.8305    
     28100   332.05564     -218744.31      0             -218257.28     -221.65925    
     28200   332.17491     -218744.34      0             -218257.13      133.80522    
     28300   328.55954     -218744.73      0             -218262.82     -204.3691     
     28400   327.2884      -218748.85      0             -218268.82     -139.77043    
     28500   327.80121     -218747.1       0             -218266.31     -296.37398    
     28600   333.48776     -218743.97      0             -218254.84      11.642233    
     28700   330.64124     -218740.39      0             -218255.43     -638.14611    
     28800   329.22306     -218744.21      0             -218261.34      373.60146    
     28900   328.70381     -218747.88      0             -218265.77      896.99212    
     29000   330.33516     -218749.29      0             -218264.78     -412.34563    
     29100   332.03568     -218741.5       0             -218254.5       569.82668    
     29200   332.62352     -218740.62      0             -218252.76      1206.3299    
     29300   330.29004     -218742.2       0             -218257.76      248.7572     
     29400   328.94378     -218745.34      0             -218262.88     -670.94135    
     29500   330.08118     -218748.21      0             -218264.08     -384.87665    
     29600   328.98106     -218744.41      0             -218261.88     -298.95296    
     29700   331.70409     -218744.94      0             -218258.42     -152.83423    
     29800   334.51908     -218737.5       0             -218246.86     -549.73512    
     29900   334.38162     -218740.24      0             -218249.79      1112.6252    
     30000   331.41744     -218744.86      0             -218258.77     -16.654793    
     30100   329.73306     -218746.49      0             -218262.87     -802.06694    
     30200   331.72995     -218751.31      0             -218264.76     -1311.2612    
     30300   328.99463     -218745.85      0             -218263.31     -354.70463    
     30400   333.17198     -218743.73      0             -218255.06     -1007.7267    
     30500   332.85439     -218740.05      0             -218251.85     -922.22696    
     30600   327.16798     -218737.59      0             -218257.73     -417.71566    
     30700   328.75963     -218745.02      0             -218262.82      106.54637    
     30800   330.02545     -218746.57      0             -218262.51      617.24323    
     30900   328.59176     -218742.58      0             -218260.63     -547.53393    
     31000   332.26493     -218743.44      0             -218256.1       605.55521    
     31100   332.79912     -218740.94      0             -218252.82     -454.41346    
     31200   331.26491     -218739.75      0             -218253.88     -90.674259    
     31300   328.33951     -218743.86      0             -218262.28      306.43185    
     31400   327.17668     -218746.08      0             -218266.21     -353.46356    
     31500   327.80832     -218745.48      0             -218264.68      147.32621    
     31600   331.64324     -218742.43      0             -218256         1712.6272    
     31700   332.75209     -218739.62      0             -218251.57     -336.52735    
     31800   332.74324     -218743.56      0             -218255.52     -38.150886    
     31900   328.9378      -218744.25      0             -218261.79     -935.9887     
     32000   325.68243     -218741.67      0             -218263.99      866.08768    
     32100   329.69319     -218746.29      0             -218262.73     -1499.3512    
     32200   332.46413     -218746.24      0             -218258.61     -49.252222    
     32300   333.56487     -218740.87      0             -218251.62     -1278.5879    
     32400   335.03886     -218733.45      0             -218242.05     -769.923      
     32500   330.15337     -218733.98      0             -218249.74     -200.14713    
     32600   331.96452     -218743.61      0             -218256.72     -1057.9691    
     32700   328.54975     -218744.11      0             -218262.22     -142.5732     
     32800   329.85123     -218748.3       0             -218264.51      118.60715    
     32900   332.93126     -218751.35      0             -218263.03      195.46233    
     33000   333.57876     -218745.36      0             -218256.09      84.553518    
     33100   331.35438     -218736.53      0             -218250.53      332.24748    
     33200   334.6465      -218745.8       0             -218254.97      1155.6894    
     33300   330.22069     -218745.55      0             -218261.21     -1633.1994    
     33400   329.6908      -218745.49      0             -218261.92     -796.74732    
     33500   326.66123     -218741.63      0             -218262.51      597.94371    
     33600   332.67909     -218746.59      0             -218258.65     -382.22087    
     33700   334.6609      -218741.65      0             -218250.8      -217.48357    
     33800   335.74112     -218742.74      0             -218250.3      -1181.5075    
     33900   331.09359     -218746.07      0             -218260.45      234.11273    
     34000   329.33324     -218746.65      0             -218263.61      613.52997    
     34100   328.07592     -218744.57      0             -218263.38      314.50124    
     34200   333.26671     -218748.03      0             -218259.23      600.2608     
     34300   331.65361     -218740.72      0             -218254.28      1322.656     
     34400   334.91909     -218740.11      0             -218248.88     -1234.8453    
     34500   332.24346     -218741.32      0             -218254.01      162.36446    
     34600   327.47985     -218743.43      0             -218263.11     -417.26403    
     34700   328.56706     -218747.04      0             -218265.12     -617.79149    
     34800   327.25583     -218743.65      0             -218263.66     -405.6511     
     34900   330.7264      -218742.54      0             -218257.46     -101.31224    
     35000   331.4674      -218738.6       0             -218252.43      209.42757    
     35100   329.64201     -218741.26      0             -218257.77     -38.205628    
     35200   328.83964     -218749.02      0             -218266.71     -372.67934    
     35300   328.54268     -218746.44      0             -218264.56      243.47039    
     35400   334.34891     -218750.22      0             -218259.82      634.52679    
     35500   330.87356     -218741.76      0             -218256.47      420.33314    
     35600   332.82        -218746.87      0             -218258.72      613.54404    
     35700   329.98297     -218751.62      0             -218267.63     -215.18203    
     35800   331.91506     -218755.05      0             -218268.23     -312.44662    
     35900   328.02226     -218743.7       0             -218262.58     -293.04887    
     36000   329.64197     -218738.93      0             -218255.44      571.55022    
     36100   333.95841     -218746.16      0             -218256.34      418.94574    
     36200   330.97901     -218746.64      0             -218261.19      71.174553    
     36300   328.93034     -218747.04      0             -218264.6       635.94938    
     36400   325.16847     -218744.09      0             -218267.16     -372.3685     
     36500   327.72361     -218745.25      0             -218264.57     -312.29596    
     36600   329.45719     -218740.45      0             -218257.23      318.19954    
     36700   331.96762     -218741.53      0             -218254.63      539.39506    
     36800   329.43862     -218741.36      0             -218258.17     -1259.4495    
     36900   328.93132     -218749.14      0             -218266.69     -335.49582    
     37000   326.03274     -218745.76      0             -218267.56      555.06784    
     37100   331.32708     -218749.41      0             -218263.45      296.48016    
     37200   328.8534      -218742.27      0             -218259.93      1749.8946    
     37300   334.34711     -218750.33      0             -218259.94      854.45492    
     37400   331.63667     -218747.18      0             -218260.76      618.35863    
     37500   326.90241     -218742.97      0             -218263.5      -90.970859    
     37600   324.72363     -218748.85      0             -218272.57     -197.93494    
     37700   325.42622     -218752.13      0             -218274.82      126.18924    
     37800   328.35189     -218747.82      0             -218266.22     -109.75619    
     37900   327.283       -218741.93      0             -218261.9       149.51641    
     38000   330.53538     -218743.95      0             -218259.15     -907.44877    
     38100   331.28504     -218743.52      0             -218257.62     -649.03809    
     38200   330.0695      -218741.84      0             -218257.72      1178.3811    
     38300   328.78575     -218746.65      0             -218264.41      43.179108    
     38400   327.70987     -218749.34      0             -218268.69      97.906968    
     38500   331.00513     -218750.47      0             -218264.98      843.93013    
     38600   334.34433     -218745.9       0             -218255.51      746.90993    
     38700   333.67348     -218743.55      0             -218254.14     -45.583179    
     38800   330.44605     -218742.44      0             -218257.77      783.63099    
     38900   329.99985     -218745.8       0             -218261.79     -37.030944    
     39000   328.60567     -218745.01      0             -218263.04      62.271103    
     39100   328.99658     -218746.71      0             -218264.16     -473.46198    
     39200   330.14193     -218744.62      0             -218260.39      879.73292    
     39300   332.99973     -218743.05      0             -218254.64     -1471.5146    
     39400   332.92609     -218744.17      0             -218255.87     -669.76276    
     39500   329.52117     -218746.59      0             -218263.27     -400.69467    
     39600   328.40358     -218748.41      0             -218266.74      129.94855    
     39700   329.12633     -218747.81      0             -218265.08      309.56218    
     39800   331.62067     -218744.56      0             -218258.17     -1148.3052    
     39900   332.89267     -218735.89      0             -218247.64      232.69312    
     40000   334.1191      -218741.78      0             -218251.72      409.08744    
     40100   332.0674      -218745.9       0             -218258.85     -746.05644    
     40200   330.54698     -218748.72      0             -218263.91     -706.01552    
     40300   329.61904     -218748.28      0             -218264.82     -179.32933    
     40400   332.06265     -218748.15      0             -218261.11      215.02005    
     40500   333.64928     -218741.87      0             -218252.51     -548.10092    
     40600   334.17405     -218741.48      0             -218251.34     -333.35035    
     40700   332.07632     -218747.47      0             -218260.41     -421.90097    
     40800   330.3769      -218747.28      0             -218262.71      821.24936    
     40900   330.62465     -218747.57      0             -218262.64      364.44997    
     41000   332.29679     -218746.4       0             -218259.01      1784.0935    
     41100   332.65473     -218741.66      0             -218253.75      900.15274    
     41200   333.34523     -218742.62      0             -218253.7      -294.458      
     41300   327.07652     -218743.85      0             -218264.12      510.42292    
     41400   327.67619     -218747.36      0             -218266.75     -370.72297    
     41500   327.71311     -218745.12      0             -218264.46     -65.491224    
     41600   334.11277     -218747.41      0             -218257.37      341.70949    
     41700   332.62285     -218741.75      0             -218253.88      825.91177    
     41800   334.90613     -218748.49      0             -218257.28      732.87685    
     41900   330.1795      -218745.26      0             -218260.98      454.65816    
     42000   328.98369     -218744.91      0             -218262.39      177.43834    
     42100   329.02472     -218744.14      0             -218261.55     -713.95631    
     42200   329.71161     -218738.16      0             -218254.56     -939.89765    
     42300   336.32461     -218740.4       0             -218247.11     -471.58807    
     42400   331.28039     -218738.39      0             -218252.5       1178.8632    
     42500   331.67614     -218745.41      0             -218258.94     -266.0821     
     42600   329.92494     -218746.24      0             -218262.33      656.53195    
     42700   330.53695     -218747.44      0             -218262.63     -513.2952     
     42800   333.77039     -218746.97      0             -218257.42     -209.6526     
     42900   332.68964     -218739.39      0             -218251.42     -612.8897     
     43000   331.35558     -218739.98      0             -218253.97      339.58231    
     43100   329.63085     -218748.14      0             -218264.66      170.09381    
     43200   328.67138     -218748.53      0             -218266.46     -896.22326    
     43300   332.97108     -218750.03      0             -218261.66     -551.04975    
     43400   331.72073     -218743.87      0             -218257.33     -941.2789     
     43500   328.79801     -218740.53      0             -218258.28     -539.3423     
     43600   328.09645     -218748.36      0             -218267.13      119.43124    
     43700   328.22552     -218752.03      0             -218270.62      596.19973    
     43800   328.68769     -218748.15      0             -218266.06     -144.13741    
     43900   330.20534     -218744.75      0             -218260.44      1015.0088    
     44000   330.50398     -218744.28      0             -218259.52      326.41024    
     44100   330.0364      -218743.36      0             -218259.29     -489.44108    
     44200   329.1493      -218744.82      0             -218262.06      834.35714    
     44300   326.19138     -218748.98      0             -218270.55      253.54761    
     44400   325.38766     -218750.63      0             -218273.37      353.68771    
     44500   328.95726     -218748.24      0             -218265.75     -440.57707    
     44600   329.45033     -218745.18      0             -218261.97     -121.5771     
     44700   332.99649     -218748.57      0             -218260.16     -702.87834    
     44800   329.01524     -218743         0             -218260.43     -146.69       
     44900   329.91194     -218746.6       0             -218262.72     -294.60835    
     45000   330.44207     -218751.19      0             -218266.53     -268.74589    
     45100   330.52034     -218754.26      0             -218269.49     -342.96195    
     45200   329.91823     -218748.47      0             -218264.58      463.31169    
     45300   335.58262     -218748.24      0             -218256.04      277.60961    
     45400   331.1828      -218741.81      0             -218256.06      479.94575    
     45500   330.00703     -218745.3       0             -218261.27      34.927818    
     45600   327.81376     -218746.32      0             -218265.51      263.65742    
     45700   332.25104     -218753.22      0             -218265.9       355.50839    
     45800   333.96914     -218743.81      0             -218253.97      400.62178    
     45900   331.62432     -218738.05      0             -218251.65      20.195937    
     46000   330.45649     -218743.42      0             -218258.73      327.10805    
     46100   329.29622     -218747.09      0             -218264.1       783.15008    
     46200   327.88397     -218746.12      0             -218265.2       632.24249    
     46300   332.26748     -218747.35      0             -218260.01      163.08363    
     46400   337.01371     -218746.09      0             -218251.79     -684.81365    
     46500   331.36571     -218739.84      0             -218253.82     -445.2244     
     46600   331.20023     -218744.74      0             -218258.97      275.76093    
     46700   332.84683     -218748.82      0             -218260.63     -192.94069    
     46800   330.66195     -218747.01      0             -218262.02      336.42046    
     46900   326.81199     -218745.53      0             -218266.19     -492.68927    
     47000   326.48531     -218752.07      0             -218273.21     -913.02228    
     47100   323.79859     -218746.63      0             -218271.71     -625.95734    
     47200   331.91955     -218748.96      0             -218262.13     -163.49689    
     47300   328.52813     -218742.47      0             -218260.61      205.96553    
     47400   327.21572     -218740.09      0             -218260.16     -535.37625    
     47500   331.86628     -218747.99      0             -218261.24     -68.276664    
     47600   332.85155     -218753.92      0             -218265.72      493.95362    
     47700   326.39383     -218748.68      0             -218269.95      794.50552    
     47800   331.60523     -218750.64      0             -218264.27     -77.216616    
     47900   328.48898     -218739.86      0             -218258.06      753.41144    
     48000   332.78914     -218745.55      0             -218257.44      276.2041     
     48100   330.10337     -218744.15      0             -218259.98     -134.81688    
     48200   330.09456     -218747.55      0             -218263.39     -82.786352    
     48300   326.73663     -218747.39      0             -218268.16     -628.60521    
     48400   324.70035     -218754.55      0             -218278.3      -1097.5127    
     48500   325.9235      -218751.63      0             -218273.59      15.855533    
     48600   329.5918      -218748.52      0             -218265.1       16.364006    
     48700   331.98129     -218746.67      0             -218259.75      653.21946    
     48800   330.02847     -218742.4       0             -218258.34      994.30543    
     48900   329.29075     -218744.45      0             -218261.47      1179.8579    
     49000   325.98502     -218746.87      0             -218268.75      159.67128    
     49100   325.19844     -218748.17      0             -218271.19     -1334.6178    
     49200   327.24463     -218740.95      0             -218260.97     -418.01887    
     49300   332.72783     -218744.37      0             -218256.35     -514.10951    
     49400   326.96652     -218738.7       0             -218259.13      189.6443     
     49500   322.86159     -218738.74      0             -218265.19      450.77772    
     49600   328.45202     -218747.57      0             -218265.82      205.75526    
     49700   326.01246     -218740.31      0             -218262.14      20.526793    
     49800   330.10084     -218737.39      0             -218253.23      642.88077    
     49900   335.33672     -218744.22      0             -218252.38     -495.04007    
     50000   328.95131     -218742.08      0             -218259.6       384.43208    
     50100   330.91043     -218747.59      0             -218262.24      654.41138    
     50200   329.6209      -218746.5       0             -218263.04     -556.01815    
     50300   332.78716     -218748.78      0             -218260.67     -56.765449    
     50400   331.68651     -218741.43      0             -218254.94     -564.66669    
     50500   332.2316      -218736.75      0             -218249.47      82.750375    
     50600   331.50834     -218741.55      0             -218255.32      823.95293    
     50700   326.43754     -218742.57      0             -218263.78      489.66335    
     50800   329.05295     -218746.64      0             -218264.01      92.250624    
     50900   333.98344     -218750.4       0             -218260.54     -1006.1456    
     51000   334.39341     -218747.62      0             -218257.16     -329.49893    
     51100   329.24707     -218740.33      0             -218257.42      304.10372    
     51200   330.63722     -218748.2       0             -218263.25      133.86732    
     51300   331.01847     -218753.2       0             -218267.69     -318.45527    
     51400   327.13512     -218747.91      0             -218268.1       1433.7313    
     51500   329.01488     -218740.82      0             -218258.24      103.10447    
     51600   327.00702     -218734.34      0             -218254.71     -295.46413    
     51700   334.74165     -218748.67      0             -218257.7       1037.9066    
     51800   329.18712     -218746.8       0             -218263.98     -311.14251    
     51900   327.71586     -218745.53      0             -218264.87     -747.86462    
     52000   328.99528     -218745.6       0             -218263.06      162.57203    
     52100   330.0236      -218745.68      0             -218261.63     -225.74928    
     52200   329.8945      -218745.2       0             -218261.34      729.07584    
     52300   327.56358     -218740.94      0             -218260.5       553.19741    
     52400   327.41974     -218738.66      0             -218258.42     -124.66109    
     52500   333.37994     -218744.22      0             -218255.25     -748.32349    
     52600   331.47241     -218743.71      0             -218257.53     -580.05813    
     52700   331.11332     -218749.63      0             -218263.98     -384.27462    
     52800   327.29252     -218748.67      0             -218268.63      117.60099    
     52900   325.42143     -218743.09      0             -218265.79     -1480.2087    
     53000   328.78672     -218739.1       0             -218256.86      224.32339    
     53100   332.17209     -218742.78      0             -218255.57      909.90535    
     53200   330.20465     -218743.95      0             -218259.63      1034.0264    
     53300   329.22905     -218747.53      0             -218264.65      183.16386    
     53400   326.89718     -218745.16      0             -218265.69     -54.021971    
     53500   332.11279     -218746.57      0             -218259.46      552.2313     
     53600   328.91445     -218734.1       0             -218251.68     -345.53298    
     53700   332.53063     -218740.45      0             -218252.73      362.82887    
     53800   329.02945     -218741.32      0             -218258.72     -482.42194    
     53900   331.26451     -218747.21      0             -218261.34      278.67539    
     54000   327.0176      -218742.29      0             -218262.65     -562.14335    
     54100   329.60432     -218744.67      0             -218261.24     -550.32123    
     54200   330.21063     -218740.29      0             -218255.96      105.14662    
     54300   333.05861     -218738.65      0             -218250.14      1044.5508    
     54400   332.62802     -218741.74      0             -218253.87     -649.61771    
     54500   328.41781     -218745.45      0             -218263.75      1226.1297    
     54600   330.88745     -218749.82      0             -218264.5      -54.966617    
     54700   330.20287     -218746.14      0             -218261.82      50.721704    
     54800   331.95449     -218743.71      0             -218256.83      586.91394    
     54900   332.68594     -218740.99      0             -218253.03      809.2623     
     55000   333.35136     -218746.07      0             -218257.13      139.7178     
     55100   327.95813     -218746.49      0             -218265.47      215.522      
     55200   328.56102     -218747.94      0             -218266.04     -390.62969    
     55300   327.34617     -218741.93      0             -218261.81      825.51367    
     55400   333.54653     -218742.84      0             -218253.62     -47.472755    
     55500   333.03783     -218742.61      0             -218254.14     -640.02057    
     55600   329.46864     -218740.83      0             -218257.6      -673.56031    
     55700   330.78931     -218745.26      0             -218260.08     -149.53224    
     55800   329.57087     -218746.18      0             -218262.79     -869.46317    
     55900   330.65909     -218749.13      0             -218264.15     -403.63532    
     56000   326.74525     -218747.28      0             -218268.03     -692.57438    
     56100   323.48505     -218743.29      0             -218268.83      291.25099    
     56200   332.09819     -218748.7       0             -218261.61      542.10964    
     56300   329.96708     -218741.08      0             -218257.12      822.04253    
     56400   332.16884     -218743.7       0             -218256.5      -58.318304    
     56500   326.18397     -218743.49      0             -218265.07     -1113.6832    
     56600   326.537       -218748.6       0             -218269.66     -152.15838    
     56700   326.54704     -218745.27      0             -218266.32     -403.31758    
     56800   328.88736     -218743.23      0             -218260.85     -57.393948    
     56900   329.14261     -218742.17      0             -218259.41      187.73027    
     57000   328.26027     -218739.98      0             -218258.52     -243.65569    
     57100   330.13814     -218746.62      0             -218262.41     -381.84554    
     57200   332.42442     -218756.94      0             -218269.36      542.23991    
     57300   328.61986     -218751.29      0             -218269.29     -10.317921    
     57400   328.17649     -218742.41      0             -218261.07      510.34983    
     57500   331.8852      -218743.62      0             -218256.84      1156.5241    
     57600   331.76597     -218745.71      0             -218259.1       307.73371    
     57700   330.31482     -218747.41      0             -218262.93      301.89931    
     57800   326.09096     -218748.2       0             -218269.91     -3.4548039    
     57900   325.7366      -218753.07      0             -218275.31     -177.71163    
     58000   326.29136     -218748.64      0             -218270.07     -1687.8643    
     58100   331.00821     -218745.52      0             -218260.03      130.9776     
     58200   330.46633     -218742.14      0             -218257.44      153.19572    
     58300   329.46361     -218742.11      0             -218258.89      695.03096    
     58400   332.5622      -218751.14      0             -218263.36     -282.37135    
     58500   327.75039     -218748.58      0             -218267.87      339.33102    
     58600   331.34825     -218754.52      0             -218268.52      830.97279    
     58700   326.41588     -218740.29      0             -218261.54     -220.1304     
     58800   329.88012     -218739.26      0             -218255.42     -121.76593    
     58900   333.55534     -218745.7       0             -218256.47     -1644.2092    
     59000   330.68179     -218747.13      0             -218262.12     -417.76287    
     59100   325.91068     -218746.78      0             -218268.76     -916.96018    
     59200   327.86208     -218748.29      0             -218267.41     -699.52139    
     59300   331.44161     -218750.72      0             -218264.59     -389.3128     
     59400   329.76582     -218745.49      0             -218261.82     -750.19708    
     59500   330.8747      -218745         0             -218259.71     -263.56167    
     59600   331.65254     -218743.84      0             -218257.4       174.80391    
     59700   331.12142     -218742.75      0             -218257.09     -402.09811    
     59800   329.48478     -218743.28      0             -218260.02      543.9312     
     59900   326.7341      -218744.65      0             -218265.42      791.67448    
     60000   327.44571     -218748.02      0             -218267.75      558.45776    
     60100   328.51449     -218746.81      0             -218264.97      500.54195    
     60200   329.83674     -218739.46      0             -218255.68      347.39875    
     60300   334.94968     -218745.42      0             -218254.15     -274.44644    
     60400   331.02319     -218744.36      0             -218258.85      168.00363    
     60500   329.03741     -218748.81      0             -218266.21     -179.76916    
     60600   329.87111     -218749.67      0             -218265.85     -807.07818    
     60700   330.92516     -218747.49      0             -218262.12      806.59789    
     60800   329.49189     -218742.9       0             -218259.63      254.50827    
     60900   334.35746     -218746.9       0             -218256.49     -499.96329    
     61000   333.12598     -218739.42      0             -218250.82     -71.240374    
     61100   330.16107     -218738.51      0             -218254.25      574.09538    
     61200   326.47449     -218742.43      0             -218263.58     -32.973309    
     61300   328.77649     -218747.03      0             -218264.81      190.17561    
     61400   331.46842     -218747.36      0             -218261.19      13.793041    
     61500   331.52082     -218742.27      0             -218256.02     -678.31617    
     61600   331.08652     -218737.01      0             -218251.4      -556.40053    
     61700   339.75561     -218745.58      0             -218247.25     -1144.5077    
     61800   331.09628     -218741.46      0             -218255.83      340.96871    
     61900   329.99692     -218745.63      0             -218261.62     -181.06938    
     62000   332.13045     -218752.19      0             -218265.05     -430.23097    
     62100   327.57756     -218744.26      0             -218263.8       568.24037    
     62200   335.20928     -218747.67      0             -218256.01      43.413391    
     62300   337.47594     -218746.75      0             -218251.77      102.90629    
     62400   331.76684     -218743.09      0             -218256.48      617.40012    
     62500   330.19582     -218744.14      0             -218259.84      353.97336    
     62600   328.54757     -218743.21      0             -218261.32     -1703.6717    
     62700   325.84758     -218741.27      0             -218263.35     -173.5624     
     62800   328.25713     -218745.95      0             -218264.49      572.46348    
     62900   332.38093     -218747.66      0             -218260.15      334.49115    
     63000   333.676       -218742.69      0             -218253.28     -1413.1812    
     63100   331.76801     -218739.71      0             -218253.1      -678.62326    
     63200   326.2672      -218740.39      0             -218261.85     -495.04587    
     63300   326.53221     -218744.57      0             -218265.64      224.45952    
     63400   330.15584     -218748.08      0             -218263.84      86.355613    
     63500   330.86297     -218745.59      0             -218260.31     -1063.9224    
     63600   329.57904     -218741.3       0             -218257.91      604.30491    
     63700   332.968       -218745.51      0             -218257.14      819.43171    
     63800   331.94552     -218746.67      0             -218259.8       221.58691    
     63900   329.38028     -218748.38      0             -218265.28      215.59314    
     64000   328.20364     -218749.29      0             -218267.91      476.34001    
     64100   331.93501     -218749.65      0             -218262.79     -270.40966    
     64200   333.0794      -218743.62      0             -218255.09     -253.99343    
     64300   329.33411     -218738.48      0             -218255.44      473.77483    
     64400   329.21364     -218741.79      0             -218258.92     -25.878529    
     64500   329.91337     -218745.62      0             -218261.73     -456.34057    
     64600   327.34102     -218742.73      0             -218262.62     -62.2831      
     64700   329.51386     -218744.96      0             -218261.66      478.99011    
     64800   330.43588     -218746.62      0             -218261.97      1312.6851    
     64900   330.88021     -218746.89      0             -218261.58      2006.1484    
     65000   330.9367      -218743.95      0             -218258.57      178.64197    
     65100   334.07544     -218738.6       0             -218248.61      194.69018    
     65200   331.72796     -218736.41      0             -218249.86     -674.31963    
     65300   334.6198      -218748.81      0             -218258.01     -484.50363    
     65400   328.03629     -218743.19      0             -218262.05     -602.63982    
     65500   329.62631     -218745.9       0             -218262.43      553.67232    
     65600   327.9397      -218740.97      0             -218259.98      321.7971     
     65700   332.35921     -218741.99      0             -218254.51     -295.66571    
     65800   331.92168     -218736.92      0             -218250.09     -477.37078    
     65900   331.5698      -218741.43      0             -218255.12     -248.94748    
     66000   333.47937     -218752.55      0             -218263.43     -122.05339    
     66100   329.93103     -218749.01      0             -218265.1      -810.50064    
     66200   331.08664     -218748.26      0             -218262.65     -120.31559    
     66300   327.5774      -218736.69      0             -218256.23     -56.06328     
     66400   332.5637      -218738.95      0             -218251.17     -715.9306     
     66500   332.38502     -218739.81      0             -218252.3       802.16696    
     66600   332.02183     -218749.7       0             -218262.72      1242.762     
     66700   325.11159     -218743.82      0             -218266.97      864.80808    
     66800   332.49743     -218751.08      0             -218263.4      -10.85151     
     66900   328.49954     -218738.91      0             -218257.09     -201.78741    
     67000   331.36248     -218739.12      0             -218253.1      -573.28729    
     67100   330.18433     -218740.72      0             -218256.44     -323.06796    
     67200   331.35055     -218745.24      0             -218259.24     -256.08443    
     67300   328.34217     -218742.8       0             -218261.22     -990.86254    
     67400   331.37404     -218747.99      0             -218261.96     -30.419827    
     67500   330.91316     -218748.42      0             -218263.07     -175.55931    
     67600   329.19532     -218747.27      0             -218264.43     -250.42677    
     67700   328.26712     -218742.69      0             -218261.22      553.55238    
     67800   329.24068     -218738.94      0             -218256.04      54.970691    
     67900   331.7599      -218741.89      0             -218255.29     -776.79802    
     68000   329.39551     -218745.2       0             -218262.07      318.63752    
     68100   326.90621     -218748.42      0             -218268.94      303.54203    
     68200   328.23464     -218747.9       0             -218266.48     -172.91828    
     68300   327.85699     -218741.93      0             -218261.05      34.108741    
     68400   331.63808     -218744.3       0             -218257.88     -905.33887    
     68500   331.87118     -218745.98      0             -218259.21      95.699078    
     68600   328.83385     -218742.8       0             -218260.49     -472.35808    
     68700   332.0256      -218750.21      0             -218263.23      38.614253    
     68800   327.85106     -218750.24      0             -218269.38     -27.607442    
     68900   324.68868     -218746.15      0             -218269.93      535.4288     
     69000   327.55942     -218741.61      0             -218261.17     -40.397436    
     69100   331.748       -218743.6       0             -218257.02     -97.854707    
     69200   332.4351      -218746.51      0             -218258.93      302.04587    
     69300   327.92476     -218744.73      0             -218263.75     -1073.5307    
     69400   327.0806      -218750.26      0             -218270.52      229.91061    
     69500   324.90378     -218753.27      0             -218276.73     -862.2232     
     69600   328.86102     -218751.18      0             -218268.84      96.020488    
     69700   330.33233     -218745.55      0             -218261.05     -1578.1778    
     69800   331.59779     -218744.62      0             -218258.26     -658.19285    
     69900   332.28124     -218745.85      0             -218258.49      311.17944    
     70000   330.02662     -218747.26      0             -218263.2       282.62951    
     70100   328.5957      -218751.2       0             -218269.24      397.60403    
     70200   326.22257     -218744.37      0             -218265.9      -191.33645    
     70300   334.62451     -218747.23      0             -218256.43     -47.520299    
     70400   333.43673     -218746.2       0             -218257.14      54.25278     
     70500   332.4722      -218749.01      0             -218261.37     -1006.6866    
     70600   326.53928     -218744.7       0             -218265.76     -23.625436    
     70700   329.08602     -218748.54      0             -218265.86     -1043.9756    
     70800   332.89079     -218745.04      0             -218256.79     -915.44753    
     70900   333.22223     -218742.52      0             -218253.78      381.52498    
     71000   332.40544     -218746.4       0             -218258.86     -64.029067    
     71100   329.3975      -218748.3       0             -218265.17      487.06298    
     71200   328.39166     -218747.11      0             -218265.46     -987.9943     
     71300   326.86519     -218742         0             -218262.59     -357.02495    
     71400   329.05837     -218743.41      0             -218260.78     -464.15326    
     71500   327.97891     -218740.96      0             -218259.91     -685.47918    
     71600   327.37782     -218741.55      0             -218261.38      149.28966    
     71700   327.51436     -218750.06      0             -218269.69      15.42158     
     71800   323.72601     -218746.33      0             -218271.52      61.696693    
     71900   327.75163     -218743.92      0             -218263.2       130.27557    
     72000   330.94847     -218744.57      0             -218259.16      571.28648    
     72100   331.38869     -218744.28      0             -218258.23     -41.956578    
     72200   330.15649     -218744.93      0             -218260.68     -417.00735    
     72300   324.39006     -218745.57      0             -218269.78     -302.06052    
     72400   327.97585     -218752.21      0             -218271.16     -725.52271    
     72500   328.84347     -218747.58      0             -218265.26     -284.51744    
     72600   328.00857     -218742.25      0             -218261.16      210.85578    
     72700   330.62518     -218744.74      0             -218259.81      226.71683    
     72800   331.87287     -218747.54      0             -218260.78      1046.8087    
     72900   330.48666     -218749.73      0             -218265        -483.73894    
     73000   325.86835     -218749.2       0             -218271.25     -342.45017    
     73100   327.22359     -218749.45      0             -218269.5       1072.4143    
     73200   335.20729     -218751.22      0             -218259.57      1092.5772    
     73300   328.44845     -218740.63      0             -218258.89     -790.02169    
     73400   330.77333     -218744.77      0             -218259.62      166.98155    
     73500   327.80919     -218746.13      0             -218265.32     -177.82929    
     73600   329.73186     -218754.4       0             -218270.78     -726.36836    
     73700   327.76832     -218748.7       0             -218267.96      286.31306    
     73800   332.058       -218743.8       0             -218256.77      901.24765    
     73900   332.04334     -218743.14      0             -218256.12      1030.4814    
     74000   327.40188     -218741.61      0             -218261.41      382.81885    
     74100   329.60164     -218749.68      0             -218266.25      258.23379    
     74200   329.31758     -218749.56      0             -218266.55      419.73699    
     74300   332.82646     -218744.7       0             -218256.54     -98.632463    
     74400   331.96677     -218739.64      0             -218252.74     -245.60713    
     74500   335.0354      -218747.86      0             -218256.45     -388.43531    
     74600   329.92348     -218747.62      0             -218263.72     -638.4956     
     74700   325.41354     -218743.24      0             -218265.95     -562.00485    
     74800   329.065       -218745.86      0             -218263.21     -329.81775    
     74900   331.83301     -218746.43      0             -218259.72     -741.87883    
     75000   329.45395     -218742.34      0             -218259.13      1023.4287    
     75100   330.16455     -218744         0             -218259.75     -12.867495    
     75200   330.72428     -218746.57      0             -218261.49     -47.511589    
     75300   326.24541     -218744.35      0             -218265.84      376.99699    
     75400   325.50625     -218751.18      0             -218273.75      642.30177    
     75500   327.48687     -218752.48      0             -218272.15      172.07366    
     75600   329.86597     -218746.86      0             -218263.04     -400.5349     
     75700   330.09047     -218744.4       0             -218260.25     -294.05738    
     75800   331.89257     -218746.48      0             -218259.69     -576.01733    
     75900   330.69941     -218746.47      0             -218261.43      507.48143    
     76000   327.89936     -218747.12      0             -218266.19      431.69994    
     76100   324.86365     -218747.31      0             -218270.83     -119.42909    
     76200   327.58068     -218746.54      0             -218266.07      320.36678    
     76300   332.6675      -218744.66      0             -218256.73     -761.1624     
     76400   331.10327     -218742.1       0             -218256.46     -517.41949    
     76500   327.63368     -218741.85      0             -218261.31      91.685188    
     76600   330.19596     -218749.97      0             -218265.66      307.21778    
     76700   330.36367     -218750.57      0             -218266.02      429.35385    
     76800   331.29967     -218745.79      0             -218259.87     -240.11086    
     76900   334.10231     -218744.53      0             -218254.5      -125.43578    
     77000   331.73516     -218742.76      0             -218256.2       88.526454    
     77100   325.58635     -218741.71      0             -218264.17     -202.11804    
     77200   327.45577     -218745.99      0             -218265.7      -392.98566    
     77300   326.63873     -218741.7       0             -218262.61     -737.24214    
     77400   329.7043      -218743.61      0             -218260.03     -1031.5093    
     77500   332.47071     -218746.92      0             -218259.28      255.61402    
     77600   330.09555     -218744.87      0             -218260.72     -773.68808    
     77700   328.67183     -218742.53      0             -218260.46     -913.76811    
     77800   330.54839     -218745.89      0             -218261.07     -207.52621    
     77900   326.5323      -218741.96      0             -218263.03     -758.46884    
     78000   328.59307     -218750.05      0             -218268.09     -92.31463     
     78100   332.17517     -218756.9       0             -218269.69      670.16921    
     78200   327.3585      -218743.29      0             -218263.14      1971.8098    
     78300   329.94201     -218740.75      0             -218256.82     -612.66375    
     78400   329.00896     -218738.61      0             -218256.04     -1338.8671    
     78500   333.40032     -218749.01      0             -218260        -752.48484    
     78600   327.61696     -218748.04      0             -218267.52     -1664.0207    
     78700   326.4707      -218747.35      0             -218268.51     -356.7245     
     78800   328.11908     -218746.52      0             -218265.26      5.738762     
     78900   331.57666     -218746.94      0             -218260.61     -151.08695    
     79000   329.7729      -218741.03      0             -218257.34      896.58757    
     79100   329.80187     -218740.24      0             -218256.51     -367.45923    
     79200   331.08616     -218747.28      0             -218261.67     -469.26594    
     79300   328.26464     -218749.98      0             -218268.51      71.673084    
     79400   328.62433     -218749.15      0             -218267.15     -412.05183    
     79500   327.26475     -218740.78      0             -218260.78     -424.42205    
     79600   332.41399     -218741.79      0             -218254.24     -471.16029    
     79700   330.6823      -218741.38      0             -218256.36     -1080.6473    
     79800   328.49514     -218743.48      0             -218261.67     -219.14332    
     79900   327.26564     -218745.04      0             -218265.04     -448.98344    
     80000   332.76039     -218753.36      0             -218265.3      -780.48722    
     80100   334.26727     -218748.4       0             -218258.13     -579.2019     
     80200   333.52194     -218741.89      0             -218252.71     -83.245155    
     80300   332.3886      -218743.63      0             -218256.11     -22.172044    
     80400   328.33724     -218746.27      0             -218264.69      336.66103    
     80500   328.93819     -218747.6       0             -218265.14     -0.89027936   
     80600   327.38475     -218742.41      0             -218262.23     -149.18131    
     80700   332.36731     -218745.77      0             -218258.28      689.68593    
     80800   331.51284     -218741.13      0             -218254.9      -584.92303    
     80900   332.53312     -218738.23      0             -218250.5       271.81439    
     81000   333.51028     -218744.87      0             -218255.7       400.85202    
     81100   331.29458     -218749.54      0             -218263.62     -421.86033    
     81200   328.64647     -218747.13      0             -218265.1      -259.22807    
     81300   328.50315     -218744.73      0             -218262.91      814.76391    
     81400   335.55366     -218746.77      0             -218254.61     -758.24544    
     81500   335.63812     -218743.89      0             -218251.61      322.1405     
     81600   329.34222     -218739.37      0             -218256.32      239.90274    
     81700   331.79943     -218746.35      0             -218259.7       569.80482    
     81800   328.55458     -218745.34      0             -218263.45     -290.23585    
     81900   329.23235     -218748.26      0             -218265.37      181.11191    
     82000   328.53062     -218745.7       0             -218263.84     -462.20409    
     82100   334.44861     -218745.77      0             -218255.23     -200.51132    
     82200   332.4162      -218740.94      0             -218253.39     -905.08511    
     82300   328.2624      -218741.72      0             -218260.26     -331.24287    
     82400   326.84392     -218745.37      0             -218265.98     -544.18321    
     82500   326.82928     -218743.94      0             -218264.58     -651.82937    
     82600   330.41157     -218745.44      0             -218260.82      1250.5869    
     82700   330.83899     -218742.7       0             -218257.45     -538.75298    
     82800   333.13513     -218738         0             -218249.38      1003.6403    
     82900   334.57755     -218738.73      0             -218248         195.63865    
     83000   329.85931     -218741.12      0             -218257.31      618.14714    
     83100   328.48058     -218744         0             -218262.21     -339.46961    
     83200   329.94783     -218747.99      0             -218264.05      673.96836    
     83300   327.14051     -218742.94      0             -218263.11      1552.2226    
     83400   331.75925     -218744.28      0             -218257.68     -383.41963    
     83500   334.53771     -218743.22      0             -218252.54     -805.65561    
     83600   337.01148     -218748.08      0             -218253.78      374.20843    
     83700   328.04378     -218745.9       0             -218264.76     -456.5774     
     83800   327.7937      -218747.23      0             -218266.45     -498.39909    
     83900   331.81856     -218751.15      0             -218264.47     -538.13759    
     84000   333.35787     -218745.86      0             -218256.92     -346.84571    
     84100   333.77944     -218742.24      0             -218252.68     -905.77556    
     84200   332.77428     -218744.23      0             -218256.15     -559.22791    
     84300   331.00656     -218745.27      0             -218259.78      484.92674    
     84400   328.44948     -218743.13      0             -218261.39      72.68519     
     84500   333.45141     -218751.4       0             -218262.32      896.01749    
     84600   328.12496     -218748.6       0             -218267.33      311.89639    
     84700   328.85745     -218754.42      0             -218272.08      489.80929    
     84800   326.02657     -218745.07      0             -218266.88     -370.67513    
     84900   333.26402     -218747.69      0             -218258.89      249.5869     
     85000   328.91405     -218741.66      0             -218259.24     -402.89015    
     85100   330.47241     -218747.57      0             -218262.86     -187.36755    
     85200   327.30933     -218748.32      0             -218268.26      787.32985    
     85300   324.41765     -218747.92      0             -218272.09      479.93668    
     85400   329.37862     -218748.27      0             -218265.17     -1001.7894    
     85500   331.46777     -218743.97      0             -218257.8      -498.35825    
     85600   330.59808     -218740.26      0             -218255.37     -695.43855    
     85700   329.29573     -218743.66      0             -218260.67     -709.17173    
     85800   327.90011     -218747.61      0             -218266.67      133.21802    
     85900   329.11606     -218749.28      0             -218266.56      863.94341    
     86000   328.74972     -218745.04      0             -218262.86      825.19748    
     86100   330.40127     -218747.15      0             -218262.55      584.65802    
     86200   330.35371     -218746.24      0             -218261.71      71.123946    
     86300   326.68408     -218739.75      0             -218260.6      -869.13007    
     86400   330.71421     -218742.91      0             -218257.85     -223.56304    
     86500   332.32034     -218742.51      0             -218255.09     -1660.9605    
     86600   330.12363     -218742.98      0             -218258.78      528.59068    
     86700   329.34863     -218749.37      0             -218266.31     -56.586722    
     86800   326.33306     -218746.69      0             -218268.06      258.69982    
     86900   325.89015     -218741.13      0             -218263.14     -91.23021     
     87000   328.08358     -218741.95      0             -218260.74     -146.39735    
     87100   328.71627     -218742.42      0             -218260.29      483.30075    
     87200   329.99877     -218745.46      0             -218261.45      408.89234    
     87300   325.95934     -218741.29      0             -218263.21     -815.64468    
     87400   327.98932     -218749.16      0             -218268.09     -992.61693    
     87500   328.00921     -218751.98      0             -218270.89      996.84863    
     87600   330.45711     -218748.88      0             -218264.19      840.88009    
     87700   333.20631     -218746.59      0             -218257.87      1242.4269    
     87800   331.50326     -218745.24      0             -218259.02     -984.0466     
     87900   333.10247     -218750.44      0             -218261.87     -571.03494    
     88000   323.99105     -218743.63      0             -218268.43     -537.74652    
     88100   325.31891     -218752.29      0             -218275.14     -359.87554    
     88200   325.52884     -218746.77      0             -218269.31      132.71974    
     88300   328.9558      -218743.73      0             -218261.25      556.01231    
     88400   328.65954     -218741.46      0             -218259.41      18.775341    
     88500   328.83096     -218740.88      0             -218258.58      373.1334     
     88600   329.86479     -218744.86      0             -218261.04     -396.76033    
     88700   328.86609     -218749.52      0             -218267.17      207.10741    
     88800   324.69862     -218747.21      0             -218270.97     -897.36639    
     88900   330.46889     -218746.83      0             -218262.13     -825.85746    
     89000   329.65615     -218740.38      0             -218256.86     -1095.1476    
     89100   333.23077     -218747.23      0             -218258.47     -4.1527156    
     89200   329.27576     -218746.28      0             -218263.33     -1173.7391    
     89300   328.68463     -218747.81      0             -218265.73     -645.17993    
     89400   330.44185     -218753.63      0             -218268.97      55.874252    
     89500   326.26177     -218747.34      0             -218268.81      31.502828    
     89600   332.4201      -218748.82      0             -218261.25     -617.37859    
     89700   331.19817     -218742.88      0             -218257.11     -278.97919    
     89800   328.67468     -218738.87      0             -218256.8       902.89348    
     89900   328.27503     -218745.41      0             -218263.92      72.566714    
     90000   324.33894     -218747.23      0             -218271.52      232.68608    
     90100   329.19678     -218751.06      0             -218268.22     -518.19185    
     90200   328.36255     -218744.43      0             -218262.82     -774.24687    
     90300   329.82434     -218743.77      0             -218260.01      825.4376     
     90400   331.04142     -218745.63      0             -218260.09      1771.2858    
     90500   329.59699     -218745.73      0             -218262.3       267.70676    
     90600   325.37019     -218746.65      0             -218269.43      648.89727    
     90700   326.19609     -218753.87      0             -218275.44     -60.380741    
     90800   331.93268     -218756.22      0             -218269.37      547.41668    
     90900   329.39135     -218746.75      0             -218263.63     -714.55335    
     91000   329.46733     -218743.58      0             -218260.34     -285.69735    
     91100   333.6111      -218747.57      0             -218258.26     -277.83543    
     91200   331.61721     -218745.82      0             -218259.43      275.81033    
     91300   328.33291     -218748.58      0             -218267.01      707.34635    
     91400   327.01106     -218749.61      0             -218269.98     -89.408161    
     91500   329.97963     -218747.48      0             -218263.49     -149.8062     
     91600   330.49361     -218741.87      0             -218257.13     -659.02762    
     91700   332.6919      -218746.69      0             -218258.73     -454.43928    
     91800   330.67131     -218746.31      0             -218261.31     -23.469821    
     91900   327.88962     -218745.83      0             -218264.91     -655.0741     
     92000   323.4978      -218746.15      0             -218271.68     -842.26909    
     92100   327.7808      -218753.58      0             -218272.82     -1127.1       
     92200   331.01791     -218747.39      0             -218261.88     -598.39546    
     92300   330.64667     -218744.02      0             -218259.05      440.59321    
     92400   328.1319      -218742.07      0             -218260.79      856.0239     
     92500   328.53144     -218746.4       0             -218264.54      176.01721    
     92600   327.66546     -218751.32      0             -218270.73      349.32834    
     92700   325.24947     -218750.14      0             -218273.09     -1389.6003    
     92800   326.95586     -218741.7       0             -218262.15     -730.31413    
     92900   329.95416     -218742.7       0             -218258.75     -256.90241    
     93000   331.33447     -218745.92      0             -218259.95      6.7232332    
     93100   329.53982     -218746.52      0             -218263.17      326.0502     
     93200   328.67226     -218752.04      0             -218269.97     -666.75205    
     93300   325.70548     -218750.31      0             -218272.6       115.6839     
     93400   331.99012     -218749.92      0             -218262.99     -676.73722    
     93500   332.25165     -218745.95      0             -218258.63      125.97094    
     93600   330.61595     -218745.51      0             -218260.59     -73.920917    
     93700   329.71632     -218748.5       0             -218264.9       856.51484    
     93800   326.14673     -218747.47      0             -218269.11     -287.20789    
     93900   332.60588     -218754.33      0             -218266.5      -1029.5908    
     94000   332.03033     -218744.35      0             -218257.36      115.41358    
     94100   336.19347     -218748.07      0             -218254.97      10.348182    
     94200   328.60942     -218742.09      0             -218260.11      1108.6758    
     94300   326.03493     -218744.15      0             -218265.95      510.20271    
     94400   328.27852     -218747.89      0             -218266.4       685.70773    
     94500   329.15315     -218747.04      0             -218264.27      1137.8715    
     94600   330.12756     -218744.69      0             -218260.49      87.158022    
     94700   329.10024     -218741.62      0             -218258.92     -402.5472     
     94800   330.14801     -218743.31      0             -218259.08     -681.42817    
     94900   325.88625     -218740.15      0             -218262.17      901.93445    
     95000   327.54382     -218746.96      0             -218266.55     -77.173043    
     95100   327.78232     -218749.17      0             -218268.41      3.049159     
     95200   328.75185     -218745.13      0             -218262.95     -591.71301    
     95300   333.38244     -218744.28      0             -218255.31     -337.99707    
     95400   334.13884     -218745.19      0             -218255.1       12.634648    
     95500   330.57882     -218744.31      0             -218259.45      357.80222    
     95600   327.7477      -218742.5       0             -218261.79      987.58526    
     95700   328.0342      -218745.01      0             -218263.88      405.55304    
     95800   333.01492     -218752.36      0             -218263.92      1276.0513    
     95900   327.64733     -218744.38      0             -218263.81     -260.03933    
     96000   330.43739     -218746.7       0             -218262.04      272.71892    
     96100   331.37141     -218744.69      0             -218258.66     -723.7296     
     96200   331.51111     -218742.35      0             -218256.12     -810.96808    
     96300   329.66817     -218743.11      0             -218259.58     -924.95005    
     96400   325.57848     -218745.09      0             -218267.56     -628.10142    
     96500   326.94351     -218747.98      0             -218268.44     -190.3993     
     96600   326.2746      -218742.48      0             -218263.93     -328.47754    
     96700   329.5509      -218741.91      0             -218258.55      242.92209    
     96800   330.95287     -218744.13      0             -218258.72      970.73394    
     96900   329.57956     -218745.47      0             -218262.07     -46.580482    
     97000   327.7895      -218747.01      0             -218266.23     -559.57696    
     97100   327.30881     -218746.98      0             -218266.91     -413.92422    
     97200   327.28392     -218742.57      0             -218262.54      294.43931    
     97300   329.83774     -218738.41      0             -218254.64     -840.82783    
     97400   335.09877     -218745.7       0             -218254.21     -290.02152    
     97500   329.2495      -218744.14      0             -218261.22     -1252.4535    
     97600   327.00957     -218743.48      0             -218263.85      159.67766    
     97700   330.3555      -218747.74      0             -218263.2      -80.594892    
     97800   332.05136     -218747.74      0             -218260.72     -537.07546    
     97900   331.83524     -218743.93      0             -218257.22     -200.73852    
     98000   333.24651     -218738.97      0             -218250.19     -52.984563    
     98100   334.62166     -218741.88      0             -218251.09     -440.32319    
     98200   330.29934     -218745.76      0             -218261.3      -49.549449    
     98300   327.46773     -218745.23      0             -218264.93     -1049.5946    
     98400   330.16957     -218748.34      0             -218264.08      497.60598    
     98500   330.05011     -218746.28      0             -218262.19      1388.2966    
     98600   329.97043     -218742.36      0             -218258.38      879.81503    
     98700   333.53702     -218743.73      0             -218254.53      379.04069    
     98800   333.23902     -218746.53      0             -218257.76      374.6717     
     98900   332.87184     -218754.19      0             -218265.97     -122.25381    
     99000   328.45237     -218749.02      0             -218267.27     -35.321278    
     99100   325.85976     -218742.42      0             -218264.48     -309.5325     
     99200   334.28645     -218746.61      0             -218256.31     -442.54149    
     99300   333.53196     -218742.69      0             -218253.49     -183.78701    
     99400   331.43807     -218743.2       0             -218257.08     -498.72817    
     99500   333.80965     -218752.56      0             -218262.96     -161.40787    
     99600   326.88796     -218745.42      0             -218265.97      370.21585    
     99700   332.72875     -218749.88      0             -218261.87      275.28748    
     99800   331.97237     -218740.91      0             -218254         97.502155    
     99900   335.23163     -218740.48      0             -218248.79      299.82526    
    100000   329.86971     -218739.48      0             -218255.66      64.831091    
    100100   329.65459     -218742.73      0             -218259.23      1045.9378    
    100200   327.80363     -218744.24      0             -218263.45     -778.75412    
    100300   332.16695     -218753.03      0             -218265.83     -413.7554     
    100400   328.02281     -218748.56      0             -218267.45     -421.73995    
    100500   327.60036     -218744.83      0             -218264.34      196.92605    
    100600   334.67549     -218747.19      0             -218256.32     -954.62329    
    100700   332.27475     -218741.84      0             -218254.49     -972.51125    
    100800   332.02921     -218747.55      0             -218260.56     -369.8795     
    100900   329.80784     -218750.27      0             -218266.54     -909.1951     
    101000   331.41421     -218751.56      0             -218265.47      140.66356    
    101100   328.47624     -218744.6       0             -218262.82      61.321859    
    101200   330.47935     -218742.92      0             -218258.2      -232.17136    
    101300   333.64344     -218741.86      0             -218252.5      -771.44862    
    101400   332.35287     -218738.48      0             -218251.01     -589.52082    
    101500   329.9384      -218745.01      0             -218261.09      566.18866    
    101600   329.74552     -218749.34      0             -218265.7      -314.8412     
    101700   329.17881     -218747.86      0             -218265.05     -36.799231    
    101800   331.45322     -218746.69      0             -218260.54     -1282.0495    
    101900   330.36288     -218739.69      0             -218255.15     -1058.5407    
    102000   334.33091     -218741         0             -218250.63     -545.66699    
    102100   334.21548     -218746.43      0             -218256.23     -506.3967     
    102200   329.77718     -218748.57      0             -218264.88     -1004.2066    
    102300   331.66056     -218751.16      0             -218264.71     -496.44366    
    102400   331.22196     -218748.09      0             -218262.29     -706.35183    
    102500   331.64072     -218742.94      0             -218256.51      401.12935    
    102600   331.80203     -218739.8       0             -218253.14      1117.4292    
    102700   327.8992      -218742.53      0             -218261.6      -54.795314    
    102800   325.75476     -218745.84      0             -218268.05      94.255671    
    102900   328.93054     -218748.63      0             -218266.19      1010.8682    
    103000   330.85909     -218745.24      0             -218259.96      868.2114     
    103100   330.20669     -218741.05      0             -218256.73     -183.82593    
    103200   331.1188      -218743.36      0             -218257.71     -1090.5763    
    103300   329.5802      -218751.9       0             -218268.5      -813.24128    
    103400   325.22425     -218748.76      0             -218271.75     -457.30843    
    103500   330.20239     -218749.89      0             -218265.58     -996.42267    
    103600   329.30021     -218742.85      0             -218259.86     -330.52672    
    103700   329.74371     -218742.96      0             -218259.32      452.74696    
    103800   329.5742      -218746.44      0             -218263.05     -379.19917    
    103900   327.23754     -218750.73      0             -218270.77      405.14888    
    104000   325.88093     -218754.45      0             -218276.47      510.95394    
    104100   323.88892     -218743.53      0             -218268.48      9.2892819    
    104200   326.35202     -218738.6       0             -218259.93      363.01276    
    104300   335.65343     -218749.91      0             -218257.61      38.627636    
    104400   332.37749     -218749.18      0             -218261.67      620.12057    
    104500   328.13077     -218747.39      0             -218266.11      694.33998    
    104600   326.28643     -218747.9       0             -218269.33     -444.27032    
    104700   331.57625     -218750.23      0             -218263.91     -330.79557    
    104800   331.16403     -218741.51      0             -218255.78     -425.61368    
    104900   332.13778     -218742.56      0             -218255.41     -293.76986    
    105000   326.64486     -218741         0             -218261.9      -457.46342    
    105100   328.8555      -218748.62      0             -218266.28      769.16471    
    105200   331.64693     -218751.88      0             -218265.45      408.35826    
    105300   332.26707     -218751.6       0             -218264.26     -554.45686    
    105400   332.31097     -218747.92      0             -218260.51     -643.85007    
    105500   332.12328     -218743.43      0             -218256.3      -274.22043    
    105600   334.90548     -218738.73      0             -218247.52     -438.88869    
    105700   333.43065     -218738.64      0             -218249.6      -807.57299    
    105800   330.42422     -218742.84      0             -218258.21     -1067.0593    
    105900   329.68928     -218745.9       0             -218262.33      37.384224    
    106000   327.92035     -218746.59      0             -218265.63     -921.35546    
    106100   328.60218     -218749.44      0             -218267.48     -310.02018    
    106200   331.71063     -218750.16      0             -218263.63     -246.0066     
    106300   333.82193     -218745.8       0             -218256.18     -98.355415    
    106400   331.85552     -218742.68      0             -218255.94      303.13014    
    106500   330.75607     -218748.93      0             -218263.8      -946.03649    
    106600   324.44939     -218743.89      0             -218268.01     -221.00376    
    106700   329.00106     -218748.6       0             -218266.05     -738.12256    
    106800   328.7998      -218744.93      0             -218262.67      302.48763    
    106900   327.56929     -218738.53      0             -218258.08      278.32944    
    107000   332.77043     -218738.03      0             -218249.95     -1130.1905    
    107100   333.9102      -218737.96      0             -218248.21      18.291924    
    107200   333.65128     -218749.44      0             -218260.06     -125.42166    
    107300   330.00985     -218747.89      0             -218263.86      278.89494    
    107400   329.36012     -218747.89      0             -218264.81     -861.05795    
    107500   328.44027     -218745.2       0             -218263.47     -536.34664    
    107600   330.67257     -218742.54      0             -218257.53     -887.63696    
    107700   331.59639     -218741.37      0             -218255.01     -1202.4772    
    107800   330.93033     -218746.22      0             -218260.84      67.335978    
    107900   325.27721     -218746.23      0             -218269.14     -116.30873    
    108000   327.12232     -218748.47      0             -218268.67     -194.70667    
    108100   325.90115     -218740.71      0             -218262.71     -743.75548    
    108200   330.22836     -218741.59      0             -218257.24     -549.21397    
    108300   334.19186     -218747.74      0             -218257.57     -1123.43      
    108400   327.46198     -218741.37      0             -218261.07     -130.99721    
    108500   328.24915     -218744.91      0             -218263.46     -1001.2655    
    108600   331.79546     -218750.02      0             -218263.37     -679.72823    
    108700   329.14209     -218747.06      0             -218264.3       194.98411    
    108800   328.56869     -218749.83      0             -218267.91     -1389.427     
    108900   331.47293     -218754.89      0             -218268.72     -1462.5536    
    109000   329.54283     -218748.75      0             -218265.4      -960.57021    
    109100   330.43001     -218742.92      0             -218258.28     -433.4837     
    109200   326.26663     -218736.61      0             -218258.07      924.65994    
    109300   331.15407     -218748.63      0             -218262.92     -552.37565    
    109400   328.43057     -218753.61      0             -218271.9      -864.0022     
    109500   327.025       -218750.65      0             -218270.99     -516.77105    
    109600   328.03434     -218746.92      0             -218265.79     -918.12556    
    109700   330.76124     -218745.33      0             -218260.19     -917.66813    
    109800   333.60359     -218747.61      0             -218258.31     -330.95251    
    109900   330.06321     -218748.88      0             -218264.77     -234.19807    
    110000   329.89545     -218754.85      0             -218270.99     -511.05606    
    110100   328.39863     -218750.68      0             -218269.02     -119.98571    
    110200   335.29906     -218748.89      0             -218257.1      -978.10347    
    110300   335.48712     -218748.25      0             -218256.18     -614.34634    
    110400   330.738       -218746.55      0             -218261.45     -1200.7914    
    110500   327.24527     -218748.43      0             -218268.45     -705.35907    
    110600   331.09617     -218754.09      0             -218268.46     -1440.8487    
    110700   331.07201     -218748.4       0             -218262.81     -17.504232    
    110800   330.26367     -218743.35      0             -218258.95     -766.8063     
    110900   333.32511     -218749.69      0             -218260.8      -896.6618     
    111000   327.55756     -218753.52      0             -218273.09     -763.4551     
    111100   324.92221     -218747.42      0             -218270.86      105.34321    
    111200   331.23253     -218749.1       0             -218263.28     -277.63856    
    111300   332.33026     -218746.23      0             -218258.8      -955.98145    
    111400   330.60673     -218743.75      0             -218258.84     -800.72348    
    111500   327.33588     -218747.03      0             -218266.92     -1648.752     
    111600   329.02394     -218755.03      0             -218272.44     -298.92696    
    111700   331.37463     -218754.96      0             -218268.93     -603.65071    
    111800   331.81952     -218749.8       0             -218263.11     -550.81328    
    111900   330.11999     -218744.41      0             -218260.22     -231.90319    
    112000   330.72971     -218747.1       0             -218262.02      740.07737    
    112100   328.16973     -218745.07      0             -218263.73      83.00905     
    112200   323.83682     -218744.23      0             -218269.25     -981.88188    
    112300   324.01189     -218751.59      0             -218276.36     -1841.8039    
    112400   327.61287     -218750.36      0             -218269.84     -419.7293     
    112500   328.89422     -218746.34      0             -218263.94     -645.73736    
    112600   328.51516     -218743.23      0             -218261.39     -1018.2837    
    112700   331.70019     -218747.55      0             -218261.04      502.52281    
    112800   329.12062     -218745.78      0             -218263.05     -865.29627    
    112900   327.59292     -218749.04      0             -218268.55     -1063.2448    
    113000   325.33511     -218748.03      0             -218270.86     -362.29955    
    113100   327.169       -218745.07      0             -218265.21     -593.87252    
    113200   330.78974     -218743.05      0             -218257.87     -350.72405    
    113300   331.53058     -218743.34      0             -218257.08     -885.52988    
    113400   334.64492     -218750.69      0             -218259.86     -1133.4236    
    113500   331.43936     -218748.91      0             -218262.79     -151.99231    
    113600   332.42138     -218750.85      0             -218263.28     -1050.7954    
    113700   329.75399     -218747.06      0             -218263.41     -447.25466    
    113800   331.00618     -218749.37      0             -218263.87      408.90809    
    113900   328.37288     -218746.66      0             -218265.04     -328.27996    
    114000   329.24611     -218746.34      0             -218263.43     -155.25934    
    114100   333.55778     -218751.11      0             -218261.88     -194.94489    
    114200   327.62622     -218741.18      0             -218260.64     -900.68798    
    114300   330.06378     -218745.57      0             -218261.46     -399.60447    
    114400   328.29135     -218746.73      0             -218265.22     -642.18723    
    114500   327.58116     -218751.89      0             -218271.42      1008.8157    
    114600   327.05245     -218751.4       0             -218271.7      -556.62036    
    114700   330.65742     -218746.52      0             -218261.54     -334.92664    
    114800   331.88133     -218744.18      0             -218257.4      -883.91329    
    114900   331.53226     -218745.69      0             -218259.43     -1786.1825    
    115000   327.73789     -218747.31      0             -218266.61     -155.79746    
    115100   327.97702     -218750.33      0             -218269.28     -60.919826    
    115200   327.89871     -218747.55      0             -218266.61     -1361.9236    
    115300   330.68801     -218748.61      0             -218263.58      407.41036    
    115400   331.0119      -218748.24      0             -218262.74      1405.8839    
    115500   331.90356     -218750.6       0             -218263.79      617.19042    
    115600   330.43804     -218749.03      0             -218264.37      1332.3428    
    115700   328.34935     -218747.51      0             -218265.92      1179.6894    
    115800   328.56408     -218745.59      0             -218263.68      497.20805    
    115900   331.74342     -218745.2       0             -218258.62     -1321.9723    
    116000   330.51682     -218741.87      0             -218257.1      -291.77503    
    116100   328.9448      -218744.16      0             -218261.69     -705.66449    
    116200   329.52423     -218752.99      0             -218269.67     -376.19599    
    116300   328.88421     -218750.72      0             -218268.34     -1120.8597    
    116400   324.80965     -218738.93      0             -218262.53     -477.85142    
    116500   331.47911     -218745.6       0             -218259.41      74.060827    
    116600   327.89475     -218741.81      0             -218260.88     -396.26469    
    116700   330.85527     -218748.67      0             -218263.4      -170.66084    
    116800   331.97551     -218752.77      0             -218265.85      467.86106    
    116900   327.22778     -218752.57      0             -218272.62      1484.3457    
    117000   325.75368     -218753.35      0             -218275.56      513.69734    
    117100   326.39501     -218745.14      0             -218266.41      240.91497    
    117200   330.68765     -218746.42      0             -218261.39      397.17927    
    117300   330.01682     -218745.37      0             -218261.33     -370.57412    
    117400   332.27685     -218751.12      0             -218263.77     -60.994562    
    117500   326.36804     -218747.5       0             -218268.82      525.94346    
    117600   328.2335      -218754.65      0             -218273.22     -300.08283    
    117700   331.3628      -218753.18      0             -218267.17     -1122.1003    
    117800   332.51318     -218747.59      0             -218259.88     -886.64485    
    117900   330.33365     -218744.96      0             -218260.45     -1260.682     
    118000   325.57912     -218742.81      0             -218265.28     -1073.169     
    118100   327.53653     -218748.02      0             -218267.62     -750.49922    
    118200   327.58739     -218749.36      0             -218268.88     -101.5505     
    118300   328.24782     -218746         0             -218264.55      23.734269    
    118400   332.75507     -218746.28      0             -218258.22      153.40843    
    118500   334.76448     -218748.67      0             -218257.67     -931.32523    
    118600   326.38368     -218743.71      0             -218265        -944.58172    
    118700   329.81546     -218753.58      0             -218269.84     -958.15916    
    118800   325.67764     -218746.32      0             -218268.64     -241.1869     
    118900   326.83477     -218744.43      0             -218265.06     -147.67619    
    119000   331.49153     -218747.94      0             -218261.74     -511.56742    
    119100   330.02129     -218744.88      0             -218260.83     -120.56705    
    119200   328.23929     -218746.12      0             -218264.69     -164.513      
    119300   326.80973     -218753.26      0             -218273.92     -207.43659    
    119400   327.42806     -218752.83      0             -218272.58     -179.37488    
    119500   330.30186     -218749.11      0             -218264.65      261.75517    
    119600   331.20296     -218746.82      0             -218261.04     -696.08294    
    119700   330.30804     -218745.53      0             -218261.06      168.76021    
    119800   325.18109     -218741.85      0             -218264.9       529.11468    
    119900   324.9326      -218750.16      0             -218273.58     -848.61258    
    120000   324.67839     -218750.15      0             -218273.94     -78.461591    
    120100   329.55304     -218748.26      0             -218264.9       619.39972    
    120200   329.07152     -218744.32      0             -218261.67      252.47242    
    120300   330.27082     -218745.8       0             -218261.38      195.47058    
    120400   329.47034     -218746.57      0             -218263.33     -627.82669    
    120500   329.47275     -218749.78      0             -218266.54     -1079.3838    
    120600   330.75241     -218753.67      0             -218268.55      615.86773    
    120700   329.38048     -218748.34      0             -218265.23     -308.96635    
    120800   330.64288     -218742.8       0             -218257.84     -553.82851    
    120900   332.27143     -218744.43      0             -218257.08     -833.26314    
    121000   333.47879     -218752.03      0             -218262.91     -1212.3423    
    121100   329.13499     -218753.81      0             -218271.07      124.9316     
    121200   329.62054     -218753.01      0             -218269.55      54.702757    
    121300   329.93851     -218749.17      0             -218265.24      239.23835    
    121400   333.24023     -218748.81      0             -218260.04     -131.366      
    121500   332.88203     -218745.49      0             -218257.25     -40.790888    
    121600   330.69973     -218747.76      0             -218262.72     -714.23758    
    121700   326.38201     -218750.09      0             -218271.38     -194.80477    
    121800   325.52179     -218748.46      0             -218271.01     -291.26425    
    121900   327.87922     -218743.61      0             -218262.71     -1115.2238    
    122000   330.02121     -218743.45      0             -218259.4      -1030.1685    
    122100   330.39059     -218745.56      0             -218260.97      201.84151    
    122200   331.56251     -218753.33      0             -218267.02     -552.2636     
    122300   328.98116     -218757.76      0             -218275.24      419.72986    
    122400   329.68176     -218756.94      0             -218273.39     -344.37062    
    122500   328.48863     -218751.16      0             -218269.36     -946.40098    
    122600   324.88134     -218741.84      0             -218265.33      178.40234    
    122700   333.68139     -218749.19      0             -218259.78     -143.01852    
    122800   331.62496     -218744.6       0             -218258.2      -752.49935    
    122900   330.50964     -218747.5       0             -218262.74      51.999071    
    123000   328.49304     -218752.92      0             -218271.12      386.47009    
    123100   326.85185     -218749.88      0             -218270.48      618.67696    
    123200   331.84018     -218752.5       0             -218265.78      109.42794    
    123300   330.23237     -218748.06      0             -218263.71     -26.022592    
    123400   329.72898     -218745.98      0             -218262.36     -746.6834     
    123500   329.22852     -218745.64      0             -218262.75      498.86115    
    123600   331.16954     -218751.82      0             -218266.09     -764.20828    
    123700   327.05779     -218753.33      0             -218273.63     -704.93807    
    123800   327.42968     -218753.01      0             -218272.76     -303.37098    
    123900   329.43528     -218746.89      0             -218263.71     -834.73376    
    124000   330.52539     -218745.38      0             -218260.59     -279.62726    
    124100   331.75158     -218748.31      0             -218261.73      256.10053    
    124200   330.99278     -218751.39      0             -218265.91      966.80979    
    124300   327.34212     -218753.38      0             -218273.27      407.26049    
    124400   326.74197     -218755.2       0             -218275.97     -162.47821    
    124500   328.62394     -218746.51      0             -218264.52     -1117.261     
    124600   330.74208     -218745.9       0             -218260.8      -442.3459     
    124700   331.99417     -218747.66      0             -218260.71     -112.78165    
    124800   331.21589     -218748.51      0             -218262.72      456.85962    
    124900   328.09377     -218747.6       0             -218266.38      336.05013    
    125000   330.77494     -218755.22      0             -218270.07     -8.6795056    
    125100   325.9643      -218745.68      0             -218267.58      110.80019    
    125200   331.25465     -218744.64      0             -218258.78     -804.94785    
    125300   331.62846     -218744.61      0             -218258.21     -1106.3054    
    125400   329.10207     -218745.89      0             -218263.19     -298.19679    
    125500   328.70162     -218750.94      0             -218268.83     -425.03453    
    125600   328.85148     -218751.08      0             -218268.75      286.10434    
    125700   331.13007     -218752.22      0             -218266.55      1224.6931    
    125800   330.82271     -218748.35      0             -218263.12      409.61053    
    125900   328.54458     -218742.3       0             -218260.42     -784.99315    
    126000   334.77485     -218745.77      0             -218254.75      390.27209    
    126100   334.7693      -218741.66      0             -218250.65      175.89855    
    126200   333.41836     -218748.26      0             -218259.23      77.053835    
    126300   329.36074     -218748.2       0             -218265.12     -1068.0226    
    126400   330.80594     -218750.35      0             -218265.16     -819.19134    
    126500   330.88975     -218746.55      0             -218261.23     -463.88262    
    126600   330.62816     -218742.4       0             -218257.46     -231.84854    
    126700   330.05107     -218737.68      0             -218253.58      614.139      
    126800   331.399       -218742.8       0             -218256.73      432.63595    
    126900   328.8569      -218748.42      0             -218266.08      91.462924    
    127000   328.48806     -218750         0             -218268.2       707.76842    
    127100   328.44108     -218748.11      0             -218266.38      219.82814    
    127200   333.10787     -218746.71      0             -218258.14      294.14885    
    127300   329.45325     -218739.18      0             -218255.97      983.55123    
    127400   328.93087     -218741.67      0             -218259.22     -751.3376     
    127500   329.11263     -218745.01      0             -218262.29     -871.31547    
    127600   329.37904     -218747.47      0             -218264.36     -456.10344    
    127700   327.16347     -218747.11      0             -218267.25     -214.34742    
    127800   323.52187     -218746.92      0             -218272.4      -939.4701     
    127900   325.38426     -218750.74      0             -218273.5      -554.87277    
    128000   330.02413     -218748.52      0             -218264.47     -601.35182    
    128100   332.55587     -218747.49      0             -218259.72      357.46845    
    128200   329.65616     -218744         0             -218260.48     -1350.4421    
    128300   330.45191     -218750.09      0             -218265.42     -128.91457    
    128400   325.25983     -218749.24      0             -218272.18      27.07742     
    128500   325.09433     -218747.91      0             -218271.09     -53.181512    
    128600   330.14356     -218743.45      0             -218259.22     -1081.6542    
    128700   334.93654     -218748.3       0             -218257.05      506.47788    
    128800   330.59041     -218746.87      0             -218261.99      772.4179     
    128900   330.24248     -218751.75      0             -218267.38     -524.33375    
    129000   327.07521     -218748.7       0             -218268.98     -728.5647     
    129100   330.07911     -218745.79      0             -218261.66     -651.71929    
    129200   333.88645     -218743.08      0             -218253.36      364.16939    
    129300   329.90404     -218741.61      0             -218257.73      298.53857    
    129400   327.74858     -218745.21      0             -218264.49      194.33928    
    129500   325.73005     -218744.69      0             -218266.93     -326.7069     
    129600   331.85315     -218753         0             -218266.26     -187.44139    
    129700   332.45649     -218745.48      0             -218257.86     -166.91856    
    129800   332.39335     -218741.1       0             -218253.57      60.491221    
    129900   332.5728      -218746.19      0             -218258.4       482.29602    
    130000   325.68725     -218742.41      0             -218264.72      305.49198    
    130100   331.37905     -218751.02      0             -218264.98      133.92635    
    130200   332.21409     -218751.93      0             -218264.66     -811.08651    
    130300   329.35404     -218745.91      0             -218262.84     -1008.3207    
    130400   333.38312     -218744.95      0             -218255.97      1343.0674    
    130500   333.08447     -218742.01      0             -218253.47     -600.57354    
    130600   333.20175     -218748.59      0             -218259.88     -842.07082    
    130700   331.36939     -218752.92      0             -218266.9       387.84003    
    130800   330.62989     -218751.31      0             -218266.37      462.99994    
    130900   330.66151     -218749.01      0             -218264.03     -435.59503    
    131000   332.92818     -218745         0             -218256.69     -508.44654    
    131100   333.25218     -218741.55      0             -218252.76     -714.01043    
    131200   330.8541      -218746.64      0             -218261.37     -79.013054    
    131300   328.87681     -218750.83      0             -218268.46     -102.71521    
    131400   327.29191     -218746.39      0             -218266.34      3.7551589    
    131500   334.14902     -218751.15      0             -218261.05      378.88811    
    131600   331.61919     -218744.55      0             -218258.16      160.57949    
    131700   333.69897     -218749.85      0             -218260.4      -908.44481    
    131800   326.71721     -218749.05      0             -218269.85     -648.91378    
    131900   327.46301     -218750.51      0             -218270.21     -219.26384    
    132000   327.25692     -218745.11      0             -218265.12     -312.17752    
    132100   331.71714     -218747.29      0             -218260.75      3.0215573    
    132200   332.17334     -218747.13      0             -218259.92     -25.210493    
    132300   335.41471     -218752.73      0             -218260.78     -110.73877    
    132400   331.48803     -218750.32      0             -218264.12     -417.96939    
    132500   329.12809     -218750.34      0             -218267.6       3.8147662    
    132600   328.14867     -218755.87      0             -218274.57     -185.57207    
    132700   327.52436     -218756.07      0             -218275.68      226.48471    
    132800   329.44796     -218749.97      0             -218266.76     -1435.4652    
    132900   330.28592     -218746.3       0             -218261.86      359.65978    
    133000   326.38539     -218739.57      0             -218260.86     -659.46426    
    133100   333.08845     -218747.83      0             -218259.29     -647.85887    
    133200   333.51369     -218752.27      0             -218263.1      -1075.0249    
    133300   327.18003     -218749.88      0             -218270        -188.08181    
    133400   328.41729     -218751.41      0             -218269.72     -191.35235    
    133500   331.28902     -218747.17      0             -218261.26     -74.871105    
    133600   330.46403     -218742.82      0             -218258.12     -443.66318    
    133700   332.85442     -218748.07      0             -218259.87     -918.45842    
    133800   332.82457     -218751.76      0             -218263.6      -1389.1896    
    133900   328.3829      -218750.13      0             -218268.48     -25.385873    
    134000   327.33336     -218752.68      0             -218272.57     -701.58958    
    134100   328.51459     -218755.19      0             -218273.35     -547.71149    
    134200   330.70199     -218749.96      0             -218264.91     -575.84589    
    134300   331.62668     -218746.84      0             -218260.44      3.5297904    
    134400   331.0164      -218745.13      0             -218259.62      424.1796     
    134500   329.09963     -218747.54      0             -218264.85     -386.13865    
    134600   324.77159     -218749.14      0             -218272.8      -228.69216    
    134700   325.82064     -218748.75      0             -218270.86      243.14983    
    134800   331.5898      -218749.95      0             -218263.6      -300.6002     
    134900   330.94435     -218748.19      0             -218262.79      410.60498    
    135000   330.86559     -218747.54      0             -218262.25     -464.57874    
    135100   332.40837     -218750.57      0             -218263.02     -695.44079    
    135200   329.43661     -218749.35      0             -218266.16     -1049.0788    
    135300   330.02365     -218752.35      0             -218268.3      -987.6438     
    135400   330.96948     -218752.75      0             -218267.31     -8.622745     
    135500   329.15285     -218742.96      0             -218260.18      250.52328    
    135600   330.52701     -218742.71      0             -218257.93     -410.05541    
    135700   334.4112      -218751.94      0             -218261.45     -419.22587    
    135800   328.25995     -218752.66      0             -218271.19      1133.5914    
    135900   326.98567     -218750.91      0             -218271.31     -250.67649    
    136000   327.39054     -218745.85      0             -218265.66     -870.04566    
    136100   332.50541     -218750.33      0             -218262.63     -633.51787    
    136200   331.57026     -218747.83      0             -218261.51     -525.52834    
    136300   329.35417     -218744.87      0             -218261.8      -954.07682    
    136400   327.16315     -218743.39      0             -218263.53      294.5806     
    136500   326.31359     -218749.26      0             -218270.65     -987.68142    
    136600   325.32938     -218752.5       0             -218275.33     -715.28434    
    136700   326.44602     -218748.07      0             -218269.27     -988.32682    
    136800   328.194       -218743.93      0             -218262.57     -1045.5331    
    136900   333.42916     -218749.38      0             -218260.34     -540.11352    
    137000   326.56524     -218741.77      0             -218262.79      1825.5697    
    137100   328.19282     -218748.36      0             -218267         204.73601    
    137200   326.01681     -218752.93      0             -218274.75      587.70141    
    137300   326.99646     -218753.19      0             -218273.58     -355.93053    
    137400   332.32802     -218750.49      0             -218263.06      433.78708    
    137500   330.75669     -218746.38      0             -218261.26     -1134.1996    
    137600   327.50454     -218741.73      0             -218261.38     -661.9113     
    137700   332.97111     -218750.02      0             -218261.65     -257.88003    
    137800   327.48981     -218744.6       0             -218264.26     -700.61975    
    137900   327.30084     -218748.39      0             -218268.33     -11.739109    
    138000   327.83564     -218750.75      0             -218269.91      1307.4043    
    138100   330.50194     -218748.56      0             -218263.81      325.744      
    138200   328.90659     -218739.64      0             -218257.23     -451.09494    
    138300   335.17369     -218750.16      0             -218258.55     -789.07463    
    138400   332.38846     -218751.43      0             -218263.91     -47.574196    
    138500   329.24891     -218751.27      0             -218268.35     -237.26589    
    138600   328.08028     -218756.68      0             -218275.48      193.63418    
    138700   325.95932     -218758.03      0             -218279.94     -59.859913    
    138800   326.75182     -218749.87      0             -218270.62      36.27957     
    138900   329.74936     -218748.5       0             -218264.85     -59.382578    
    139000   333.28016     -218747.95      0             -218259.12     -379.85576    
    139100   329.30245     -218740.11      0             -218257.12     -708.20814    
    139200   330.49043     -218745.06      0             -218260.32      10.530084    
    139300   324.61966     -218746.27      0             -218270.15     -333.3631     
    139400   326.55775     -218749.29      0             -218270.33     -1357.758     
    139500   328.88255     -218747.84      0             -218265.46      514.57719    
    139600   330.825       -218746.96      0             -218261.73      721.75242    
    139700   331.22613     -218746.37      0             -218260.55     -87.778569    
    139800   330.59122     -218747.14      0             -218262.26     -176.6698     
    139900   329.41811     -218746.14      0             -218262.98     -596.43866    
    140000   329.74081     -218746.58      0             -218262.94      944.69707    
    140100   328.08195     -218746.14      0             -218264.94      922.79844    
    140200   326.52864     -218749.49      0             -218270.56      198.44937    
    140300   322.97849     -218747.46      0             -218273.74     -220.10495    
    140400   329.44765     -218749.29      0             -218266.08      717.44377    
    140500   330.94044     -218745.61      0             -218260.22      877.8029     
    140600   333.70269     -218748.71      0             -218259.27      761.62563    
    140700   333.73742     -218752.52      0             -218263.02      852.13401    
    140800   326.44067     -218747.54      0             -218268.74     -897.54551    
    140900   323.75623     -218750.88      0             -218276.02      84.189734    
    141000   321.46448     -218751.44      0             -218279.95     -270.90449    
    141100   330.9223      -218754.47      0             -218269.11     -220.68238    
    141200   332.47166     -218750.61      0             -218262.97     -116.21712    
    141300   328.86996     -218742.72      0             -218260.36      26.729553    
    141400   330.27573     -218743.82      0             -218259.4       413.48617    
    141500   332.7426      -218750.86      0             -218262.82      271.07857    
    141600   324.40343     -218746.85      0             -218271.04      271.56502    
    141700   326.42427     -218750.15      0             -218271.38     -320.91048    
    141800   329.11132     -218747.58      0             -218264.86     -197.03853    
    141900   331.57207     -218747.87      0             -218261.55     -330.5428     
    142000   329.2104      -218744.9       0             -218262.04     -96.984743    
    142100   330.32221     -218748.02      0             -218263.53      72.430063    
    142200   327.87119     -218749.98      0             -218269.09     -965.15031    
    142300   324.51017     -218749.68      0             -218273.71     -235.44677    
    142400   328.86869     -218748.41      0             -218266.06      506.68268    
    142500   329.83518     -218743.05      0             -218259.27      225.41763    
    142600   331.51928     -218745.25      0             -218259.01      594.73394    
    142700   329.38626     -218746.75      0             -218263.64      605.13139    
    142800   329.79039     -218753.29      0             -218269.58      10.95469     
    142900   325.38851     -218750.93      0             -218273.68      22.52975     
    143000   327.96279     -218749.38      0             -218268.35     -63.532943    
    143100   330.61118     -218744.9       0             -218259.98     -972.98567    
    143200   331.54385     -218743.02      0             -218256.74     -435.55851    
    143300   332.74645     -218746.96      0             -218258.92     -547.89717    
    143400   327.48911     -218747.33      0             -218266.99     -614.64305    
    143500   329.08639     -218753.04      0             -218270.37     -503.04056    
    143600   327.75996     -218748.36      0             -218267.63      50.806777    
    143700   328.35398     -218745.68      0             -218264.07      1407.6061    
    143800   333.37879     -218751.05      0             -218262.08      1713.5317    
    143900   329.35284     -218745.2       0             -218262.14      879.04284    
    144000   331.34675     -218748.4       0             -218262.41      252.37025    
    144100   328.5628      -218747.31      0             -218265.41     -326.89743    
    144200   325.95822     -218749.77      0             -218271.68      192.49818    
    144300   329.43338     -218752.86      0             -218269.67     -790.21742    
    144400   328.46491     -218742.82      0             -218261.06     -72.60211     
    144500   328.3486      -218740.53      0             -218258.93      449.97708    
    144600   332.54702     -218748.2       0             -218260.44      607.45448    
    144700   326.28782     -218745.22      0             -218266.64     -499.67208    
    144800   330.78897     -218758.22      0             -218273.05     -76.092255    
    144900   330.21722     -218758.81      0             -218274.48      386.17477    
    145000   330.48138     -218748.93      0             -218264.21      1124.794     
    145100   329.09653     -218741.46      0             -218258.77      454.18405    
    145200   327.51487     -218739.31      0             -218258.94     -1062.6599    
    145300   327.81582     -218745.88      0             -218265.06     -909.45025    
    145400   325.2889      -218746.91      0             -218269.81      500.58961    
    145500   328.61392     -218749.58      0             -218267.6      -656.76259    
    145600   334.92664     -218747.47      0             -218256.23     -1212.8032    
    145700   331.9562      -218742.61      0             -218255.72     -272.20802    
    145800   329.71447     -218744.95      0             -218261.35      1136.5195    
    145900   330.08007     -218749.71      0             -218265.58      920.86696    
    146000   327.27224     -218746.89      0             -218266.88      273.48267    
    146100   330.78277     -218749.05      0             -218263.89      1013.7213    
    146200   332.05621     -218740.85      0             -218253.81     -374.28951    
    146300   333.57934     -218743.89      0             -218254.63      131.2939     
    146400   328.5947      -218744.28      0             -218262.33      697.86724    
    146500   327.91396     -218746.32      0             -218265.36      107.37797    
    146600   329.58805     -218748.26      0             -218264.85      9.9101046    
    146700   331.46231     -218747.66      0             -218261.5      -525.0306     
    146800   333.8862      -218743.64      0             -218253.92     -629.68787    
    146900   333.63886     -218739.55      0             -218250.2       167.75542    
    147000   333.61605     -218747.71      0             -218258.39      542.41685    
    147100   325.72567     -218741.34      0             -218263.6      -644.90036    
    147200   327.77064     -218745.28      0             -218264.54     -468.4589     
    147300   328.64049     -218746.8       0             -218264.78     -181.02025    
    147400   329.46814     -218745.63      0             -218262.4      -598.37563    
    147500   330.82854     -218742.24      0             -218257        -946.07534    
    147600   334.62142     -218745.89      0             -218255.1      -342.66448    
    147700   326.58223     -218741.83      0             -218262.82      105.29749    
    147800   331.83029     -218755.41      0             -218268.71     -514.9732     
    147900   329.92859     -218752.03      0             -218268.12      1118.7546    
    148000   326.84944     -218743.01      0             -218263.61      741.40484    
    148100   333.80168     -218746.5       0             -218256.91     -648.72005    
    148200   331.05297     -218740.2       0             -218254.64     -958.82869    
    148300   329.79557     -218751.38      0             -218267.66      371.70091    
    148400   327.76882     -218752.45      0             -218271.7      -8.6913148    
    148500   328.95225     -218750.77      0             -218268.29     -324.33936    
    148600   329.5469      -218743.96      0             -218260.61      553.5269     
    148700   333.70534     -218748.41      0             -218258.96     -571.42568    
    148800   330.48432     -218748.02      0             -218263.29     -456.52084    
    148900   326.73547     -218749.91      0             -218270.69      464.64703    
    149000   323.4045      -218745.99      0             -218271.64     -78.049546    
    149100   334.75855     -218753.15      0             -218262.15      110.34837    
    149200   329.70375     -218743.02      0             -218259.44     -355.86135    
    149300   329.06322     -218744.74      0             -218262.1      -354.20068    
    149400   327.7724      -218747.28      0             -218266.54     -221.95213    
    149500   325.74415     -218745.83      0             -218268.05     -567.02628    
    149600   327.90022     -218745.8       0             -218264.86     -68.263552    
    149700   333.37688     -218745.08      0             -218256.11      142.28307    
    149800   335.14963     -218747.15      0             -218255.58     -406.9396     
    149900   331.28809     -218747.25      0             -218261.34      162.92681    
    150000   333.68661     -218756.64      0             -218267.21      300.57017    
    150100   332.69673     -218754.35      0             -218266.38      360.16083    
    150200   327.26623     -218743.52      0             -218263.51      84.27999     
    150300   331.16446     -218744.11      0             -218258.39      97.552744    
    150400   330.70667     -218739.29      0             -218254.24     -743.18364    
    150500   331.11016     -218741.78      0             -218256.14     -52.807407    
    150600   328.53352     -218748.21      0             -218266.34      457.15211    
    150700   327.67271     -218749.99      0             -218269.39      609.39019    
    150800   332.00019     -218753.57      0             -218266.62      370.61288    
    150900   333.32959     -218748.76      0             -218259.86      532.01765    
    151000   332.81766     -218743.64      0             -218255.49      527.69773    
    151100   329.27693     -218741.85      0             -218258.9      -709.41345    
    151200   329.4577      -218746.77      0             -218263.55     -231.94734    
    151300   328.56564     -218746.15      0             -218264.24      277.73531    
    151400   328.72812     -218743.79      0             -218261.64     -762.50114    
    151500   332.81062     -218747.61      0             -218259.48      236.99474    
    151600   330.24724     -218746.25      0             -218261.87     -347.51441    
    151700   331.48926     -218754.76      0             -218268.56      36.763234    
    151800   324.86083     -218749.8       0             -218273.32     -205.83447    
    151900   328.88008     -218749.18      0             -218266.81      226.00009    
    152000   331.19565     -218747.27      0             -218261.5       1106.8366    
    152100   331.68867     -218748.46      0             -218261.96      1119.2669    
    152200   330.4842      -218749.57      0             -218264.84     -699.45264    
    152300   327.54929     -218747.87      0             -218267.45     -567.90376    
    152400   330.53833     -218752.85      0             -218268.04      88.652959    
    152500   331.38943     -218748.43      0             -218262.37      527.24874    
    152600   336.59563     -218749.94      0             -218256.25      170.88308    
    152700   331.78167     -218745.32      0             -218258.69      1028.427     
    152800   328.07762     -218748.25      0             -218267.06     -664.82508    
    152900   330.61453     -218753.35      0             -218268.44     -766.33363    
    153000   327.53479     -218746.27      0             -218265.87     -389.36771    
    153100   334.18731     -218751.7       0             -218261.54     -1279.2047    
    153200   331.53954     -218745.84      0             -218259.56     -608.17838    
    153300   328.87507     -218741.32      0             -218258.96      301.54533    
    153400   331.09224     -218746.88      0             -218261.26     -780.03895    
    153500   327.44685     -218747.66      0             -218267.39     -58.568403    
    153600   326.32499     -218749.33      0             -218270.7      -206.16297    
    153700   328.67438     -218749.26      0             -218267.19      592.93756    
    153800   331.63037     -218744.32      0             -218257.92     -177.72587    
    153900   329.09929     -218738.58      0             -218255.88     -738.07987    
    154000   336.10602     -218751.98      0             -218259.01      560.11058    
    154100   330.43598     -218749.05      0             -218264.4      -585.41209    
    154200   328.46049     -218747.15      0             -218265.39     -820.10239    
    154300   328.30641     -218746.66      0             -218265.13     -324.79229    
    154400   330.44112     -218748.3       0             -218263.64     -591.29267    
    154500   329.5604      -218747.09      0             -218263.72     -301.03717    
    154600   329.25832     -218745.7       0             -218262.77     -19.937734    
    154700   329.11592     -218745.69      0             -218262.97      1020.8106    
    154800   331.0222      -218750.06      0             -218264.54      680.10996    
    154900   329.83419     -218753.23      0             -218269.46     -819.39013    
    155000   325.30885     -218753.08      0             -218275.95     -731.07667    
    155100   329.20715     -218753.85      0             -218270.99     -348.44269    
    155200   329.13727     -218746.16      0             -218263.41     -973.8755     
    155300   332.49782     -218748.08      0             -218260.4       1172.7333    
    155400   328.84048     -218743.06      0             -218260.74      1306.603     
    155500   327.9008      -218746.54      0             -218265.6       299.67935    
    155600   324.12925     -218748.57      0             -218273.16     -211.77411    
    155700   326.03485     -218747.84      0             -218269.64     -615.17096    
    155800   333.85603     -218753.18      0             -218263.51     -26.33044     
    155900   333.41454     -218750.57      0             -218261.54      457.17711    
    156000   334.07241     -218752.2       0             -218262.21      562.94082    
    156100   332.13403     -218751.8       0             -218264.65     -463.88453    
    156200   326.83862     -218752.16      0             -218272.79     -995.20718    
    156300   327.13327     -218753.51      0             -218273.69      407.29919    
    156400   330.79251     -218750.12      0             -218264.94     -402.01615    
    156500   330.20647     -218745.96      0             -218261.64      201.6526     
    156600   331.32018     -218747.34      0             -218261.39      221.4442     
    156700   329.11356     -218745.64      0             -218262.92      143.63332    
    156800   330.95319     -218752.96      0             -218267.54     -810.78884    
    156900   328.8617      -218755.34      0             -218272.99     -444.68432    
    157000   329.01147     -218750.8       0             -218268.23     -89.27095     
    157100   327.10444     -218739.93      0             -218260.16     -284.33272    
    157200   330.70757     -218743.73      0             -218258.68     -701.07096    
    157300   330.23482     -218745.71      0             -218261.35     -339.47703    
    157400   330.03206     -218751.92      0             -218267.85      671.70317    
    157500   325.26901     -218750.58      0             -218273.51      1110.4571    
    157600   327.74524     -218748.87      0             -218268.16     -260.56976    
    157700   330.29803     -218742.72      0             -218258.26     -312.86766    
    157800   329.39446     -218741.01      0             -218257.88     -806.36819    
    157900   329.47407     -218745.83      0             -218262.58      536.29644    
    158000   327.54201     -218748.47      0             -218268.06      1283.6033    
    158100   331.09264     -218753.86      0             -218268.25     -362.56024    
    158200   330.53244     -218744.05      0             -218259.25     -329.45952    
    158300   334.30456     -218744.13      0             -218253.8      -1221.3445    
    158400   334.90315     -218749.34      0             -218258.14     -1015.8521    
    158500   330.37437     -218749.23      0             -218264.66     -1191.4631    
    158600   327.01269     -218744.98      0             -218265.34     -1046.249     
    158700   332.6431      -218751.35      0             -218263.46     -260.47355    
    158800   332.36888     -218748.04      0             -218260.55      1167.5885    
    158900   335.94925     -218743.12      0             -218250.38     -17.355214    
    159000   332.55263     -218738.59      0             -218250.83     -1036.0945    
    159100   330.46075     -218743.57      0             -218258.88     -239.91454    
    159200   329.22662     -218745.6       0             -218262.72     -148.26262    
    159300   330.53344     -218750.01      0             -218265.22      196.847      
    159400   325.15319     -218744.42      0             -218267.51      443.84239    
    159500   329.57695     -218748.75      0             -218265.35      1050.0405    
    159600   331.73349     -218744.78      0             -218258.23     -585.54528    
    159700   330.25462     -218741.75      0             -218257.36     -137.76895    
    159800   329.7206      -218747.43      0             -218263.82     -1138.2555    
    159900   325.44552     -218747.49      0             -218270.15      670.68953    
    160000   327.19572     -218747.53      0             -218267.63      279.56476    
    160100   331.34642     -218749.95      0             -218263.96     -56.010749    
    160200   332.00559     -218747.85      0             -218260.89      246.19613    
    160300   328.91067     -218742.56      0             -218260.14      620.29044    
    160400   329.37087     -218747.16      0             -218264.06     -75.877317    
    160500   326.53189     -218751.27      0             -218272.34     -88.350165    
    160600   329.96175     -218755.42      0             -218271.46     -412.34593    
    160700   331.2642      -218748.98      0             -218263.11      207.84838    
    160800   332.79003     -218747.47      0             -218259.36     -130.2979     
    160900   330.52179     -218745.14      0             -218260.36      67.815767    
    161000   328.29878     -218745.7       0             -218264.18      483.93889    
    161100   328.2984      -218753.79      0             -218272.27      419.21933    
    161200   324.71737     -218752.87      0             -218276.6       4.0905763    
    161300   323.81424     -218744.62      0             -218269.68      793.30544    
    161400   329.6229      -218747.63      0             -218264.16     -944.04591    
    161500   331.71729     -218747.52      0             -218260.99     -156.0132     
    161600   331.92333     -218746.84      0             -218260.01     -630.93247    
    161700   332.28393     -218747.51      0             -218260.14      242.82764    
    161800   331.2901      -218747.69      0             -218261.78     -537.99551    
    161900   326.08688     -218744.42      0             -218266.14     -408.11733    
    162000   329.74969     -218753.02      0             -218269.37      41.589679    
    162100   329.56734     -218750.98      0             -218267.6       870.62341    
    162200   331.49516     -218744.61      0             -218258.41      1667.5402    
    162300   332.91532     -218744.73      0             -218256.44      648.75493    
    162400   332.92753     -218748.86      0             -218260.55      712.87444    
    162500   326.05927     -218744.89      0             -218266.65      974.46201    
    162600   324.03281     -218742.59      0             -218267.33      536.50286    
    162700   330.5219      -218750.29      0             -218265.51     -697.60471    
    162800   332.55348     -218749.92      0             -218262.16     -582.93059    
    162900   334.58651     -218751.15      0             -218260.41     -994.35084    
    163000   332.03196     -218744.21      0             -218257.21     -623.24068    
    163100   331.04709     -218740.24      0             -218254.68     -349.41295    
    163200   330.40015     -218742.83      0             -218258.23      85.525545    
    163300   329.12355     -218748.67      0             -218265.94      260.21714    
    163400   333.03044     -218756.73      0             -218268.27     -102.3334     
    163500   327.5893      -218745.68      0             -218265.2      -40.066594    
    163600   332.76181     -218743.68      0             -218255.61     -895.8271     
    163700   332.7766      -218742.54      0             -218254.45     -30.711481    
    163800   334.35854     -218748.33      0             -218257.93     -1316.6113    
    163900   333.31538     -218751.01      0             -218262.13      466.69887    
    164000   329.0799      -218749.45      0             -218266.78      673.82822    
    164100   325.54496     -218744.59      0             -218267.11     -84.557439    
    164200   329.37035     -218742.21      0             -218259.12     -1237.9717    
    164300   336.38484     -218745.04      0             -218251.66     -568.25447    
    164400   334.93903     -218747.92      0             -218256.66      491.5657     
    164500   333.50451     -218752.36      0             -218263.21      339.75378    
    164600   328.64289     -218748.6       0             -218266.58      88.165718    
    164700   327.38779     -218746.22      0             -218266.04     -82.102528    
    164800   330.65439     -218742.69      0             -218257.71     -779.67457    
    164900   337.50155     -218747.54      0             -218252.52     -25.66363     
    165000   331.69293     -218743.76      0             -218257.26     -625.52797    
    165100   331.66909     -218748.48      0             -218262.01     -567.48337    
    165200   329.20608     -218747.07      0             -218264.22     -1365.5638    
    165300   331.47656     -218750.5       0             -218264.32      617.75749    
    165400   331.28563     -218746.71      0             -218260.8      -171.09049    
    165500   332.96561     -218740.32      0             -218251.96      1111.6172    
    165600   332.39844     -218741.73      0             -218254.19     -310.14329    
    165700   330.90169     -218746.7       0             -218261.36      8.8045762    
    165800   330.66404     -218747.99      0             -218263        -915.33841    
    165900   326.53216     -218744.19      0             -218265.26     -584.13435    
    166000   330.17914     -218748.28      0             -218264        -543.19445    
    166100   328.58177     -218739.2       0             -218257.27      483.79482    
    166200   333.02756     -218741.53      0             -218253.08     -633.66823    
    166300   329.17377     -218741.91      0             -218259.11     -1527.816     
    166400   329.53263     -218747.94      0             -218264.61     -774.74017    
    166500   331.09315     -218750.57      0             -218264.95      63.914534    
    166600   327.46794     -218745.36      0             -218265.06      253.52513    
    166700   328.4875      -218743.8       0             -218262        -307.19238    
    166800   334.80221     -218745.06      0             -218254         339.09274    
    166900   332.41119     -218740.5       0             -218252.95      65.223497    
    167000   331.85634     -218748.12      0             -218261.38     -150.36032    
    167100   329.47403     -218747.03      0             -218263.79      662.09922    
    167200   330.89526     -218748.8       0             -218263.47     -571.84925    
    167300   327.10003     -218743.3       0             -218263.54      116.13885    
    167400   327.87443     -218741.66      0             -218260.76      481.55859    
    167500   330.5829      -218742.01      0             -218257.14     -43.402699    
    167600   331.43199     -218743.25      0             -218257.13      635.38919    
    167700   333.34276     -218752.22      0             -218263.31     -302.65119    
    167800   330.11746     -218754.21      0             -218270.02     -680.19255    
    167900   328.87382     -218750.63      0             -218268.26     -442.18881    
    168000   328.3835      -218744.44      0             -218262.8      -491.52157    
    168100   329.99993     -218745.28      0             -218261.27     -1555.9028    
    168200   330.68015     -218746.66      0             -218261.64      85.479328    
    168300   330.36908     -218749.15      0             -218264.6      -191.52343    
    168400   326.3256      -218749.52      0             -218270.89     -163.22711    
    168500   323.73415     -218752.84      0             -218278.02      38.347069    
    168600   324.66157     -218747.27      0             -218271.09     -49.074337    
    168700   331.75261     -218749.76      0             -218263.17     -494.28869    
    168800   330.14582     -218744.67      0             -218260.44     -860.72552    
    168900   330.97519     -218746.22      0             -218260.78      441.58529    
    169000   330.39255     -218749.42      0             -218264.83      83.859378    
    169100   332.59791     -218757.8       0             -218269.97     -428.52719    
    169200   328.36551     -218754.89      0             -218273.27      494.42202    
    169300   328.49029     -218748.15      0             -218266.34      611.47513    
    169400   332.82268     -218746.5       0             -218258.35     -292.40393    
    169500   331.42404     -218744.71      0             -218258.6       164.43767    
    169600   328.75206     -218746.6       0             -218264.42     -736.74793    
    169700   327.82653     -218749.57      0             -218268.74     -629.29815    
    169800   330.44753     -218753.69      0             -218269.01     -1015.554     
    169900   331.32507     -218744.36      0             -218258.4      -81.094202    
    170000   332.47982     -218743.18      0             -218255.53     -705.54086    
    170100   329.33348     -218743.2       0             -218260.16     -571.29369    
    170200   329.60194     -218748.99      0             -218265.56     -314.37826    
    170300   330.1729      -218754.63      0             -218270.36     -314.59488    
    170400   326.61549     -218747.71      0             -218268.66      1252.5247    
    170500   327.54567     -218737.49      0             -218257.07     -399.68117    
    170600   331.15958     -218741.1       0             -218255.39     -663.60206    
    170700   327.39462     -218741.45      0             -218261.25      167.93725    
    170800   328.5771      -218748.91      0             -218266.98      245.87729    
    170900   331.46117     -218754.58      0             -218268.42     -306.29685    
    171000   331.32495     -218750.5       0             -218264.54     -1555.9065    
    171100   332.9444      -218741.68      0             -218253.34     -718.99078    
    171200   332.88223     -218743.33      0             -218255.08      33.434118    
    171300   331.00488     -218746.86      0             -218261.37     -128.49761    
    171400   326.29181     -218744.99      0             -218266.41     -309.47485    
    171500   326.53977     -218746.24      0             -218267.3      -947.47417    
    171600   330.98877     -218747.97      0             -218262.5      -284.29161    
    171700   331.73063     -218739.43      0             -218252.88     -838.59649    
    171800   332.84066     -218742.49      0             -218254.31     -330.8966     
    171900   329.47052     -218744.64      0             -218261.4       41.686017    
    172000   330.31936     -218748.65      0             -218264.16      435.34503    
    172100   329.52156     -218747.88      0             -218264.56      785.50124    
    172200   327.40028     -218740.8       0             -218260.6       26.839785    
    172300   333.83064     -218742.05      0             -218252.42     -367.55267    
    172400   330.04513     -218739.12      0             -218255.04     -259.35252    
    172500   332.33968     -218752.27      0             -218264.83     -387.47518    
    172600   330.61068     -218751.01      0             -218266.1       470.21809    
    172700   325.60123     -218741.55      0             -218263.98     -17.656722    
    172800   333.42733     -218747.98      0             -218258.94      361.03322    
    172900   332.98783     -218745.12      0             -218256.72     -355.94802    
    173000   333.12114     -218750.41      0             -218261.82     -31.824059    
    173100   329.60386     -218753.93      0             -218270.49      70.549118    
    173200   326.2559      -218749.15      0             -218270.62     -369.54959    
    173300   330.90069     -218749.59      0             -218264.25     -909.59006    
    173400   330.37931     -218744.31      0             -218259.74     -1001.4474    
    173500   329.0745      -218742.95      0             -218260.29     -445.61538    
    173600   330.52193     -218746.56      0             -218261.78     -921.755      
    173700   326.42129     -218742.98      0             -218264.22     -312.27108    
    173800   324.06688     -218747.59      0             -218272.27      432.31175    
    173900   328.72888     -218757.31      0             -218275.16     -223.19254    
    174000   326.97466     -218746.9       0             -218267.32     -268.34549    
    174100   330.73932     -218748.86      0             -218263.76     -198.58705    
    174200   332.27868     -218748.97      0             -218261.61      460.44135    
    174300   327.15047     -218740.67      0             -218260.83     -685.02738    
    174400   331.55407     -218748.33      0             -218262.04     -899.0799     
    174500   327.29416     -218747.62      0             -218267.57     -412.10996    
    174600   325.72684     -218748.54      0             -218270.79     -396.4573     
    174700   325.62582     -218743.54      0             -218265.93     -69.66981     
    174800   331.10903     -218742.7       0             -218257.06     -1586.7657    
    174900   330.87505     -218743.11      0             -218257.82     -841.42413    
    175000   331.14505     -218748.88      0             -218263.19     -811.94594    
    175100   328.86933     -218750.96      0             -218268.6      -17.552232    
    175200   329.56914     -218751.44      0             -218268.06     -684.35209    
    175300   330.28496     -218745.7       0             -218261.27     -180.98428    
    175400   336.52908     -218746.48      0             -218252.89     -548.45679    
    175500   333.35769     -218745.29      0             -218256.35     -478.01062    
    175600   327.23814     -218743.14      0             -218263.17      576.45884    
    175700   330.6059      -218752.55      0             -218267.64      156.69181    
    175800   326.17479     -218745.95      0             -218267.55     -67.4452      
    175900   331.45451     -218746.36      0             -218260.21     -996.74944    
    176000   332.3615      -218742.26      0             -218254.78     -1043.5431    
    176100   332.89074     -218746.01      0             -218257.76     -948.18115    
    176200   330.65136     -218754.33      0             -218269.36     -315.93741    
    176300   324.81235     -218745.07      0             -218268.66     -318.51013    
    176400   331.60433     -218749.29      0             -218262.92     -0.47850634   
    176500   327.89023     -218739.84      0             -218258.92     -1030.5414    
    176600   326.22071     -218737.61      0             -218259.13     -265.35492    
    176700   328.10762     -218749.27      0             -218268.03     -769.52308    
    176800   323.43645     -218746.18      0             -218271.79      500.45523    
    176900   327.70749     -218747.17      0             -218266.52     -1133.808     
    177000   328.50041     -218743.02      0             -218261.2      -740.13966    
    177100   333.67565     -218749.62      0             -218260.22     -311.77201    
    177200   326.55253     -218741.84      0             -218262.88     -561.40772    
    177300   331.93407     -218750.53      0             -218263.68      593.14782    
    177400   329.72887     -218750.9       0             -218267.28      294.14349    
    177500   326.69069     -218751.81      0             -218272.65     -590.17244    
    177600   328.01648     -218750.23      0             -218269.13     -466.81223    
    177700   331.08498     -218747.48      0             -218261.87     -214.7907     
    177800   332.36663     -218745.92      0             -218258.44      740.48806    
    177900   333.49556     -218748.26      0             -218259.12     -141.71282    
    178000   327.40467     -218749.12      0             -218268.91     -602.14116    
    178100   328.26887     -218753.19      0             -218271.71     -257.45245    
    178200   329.09411     -218750.4       0             -218267.71     -115.62918    
    178300   328.41262     -218744.06      0             -218262.37      504.29619    
    178400   331.42137     -218745.23      0             -218259.13     -149.95845    
    178500   333.99228     -218750.26      0             -218260.39     -1151.7142    
    178600   328.06342     -218750.41      0             -218269.24     -305.34728    
    178700   329.07391     -218759.02      0             -218276.36     -1098.8334    
    178800   326.7136      -218750.33      0             -218271.14     -315.10757    
    178900   330.71869     -218749.33      0             -218264.26     -731.46434    
    179000   328.90772     -218743.22      0             -218260.81     -15.679588    
    179100   330.29413     -218743.56      0             -218259.11     -573.18054    
    179200   330.47956     -218747.23      0             -218262.51      35.847704    
    179300   324.70888     -218747.58      0             -218271.33     -291.50614    
    179400   329.3103      -218753.94      0             -218270.94     -786.61844    
    179500   329.33506     -218747.49      0             -218264.45     -969.40855    
    179600   334.17124     -218748.31      0             -218258.18     -170.49843    
    179700   333.56925     -218748.37      0             -218259.12      1056.8595    
    179800   330.04848     -218747.5       0             -218263.42      63.161837    
    179900   326.65499     -218746.17      0             -218267.06     -857.77263    
    180000   330.57212     -218751.08      0             -218266.22     -375.04622    
    180100   333.73005     -218746.24      0             -218256.75      853.46845    
    180200   331.88099     -218739.94      0             -218253.16     -542.88218    
    180300   332.82992     -218746.78      0             -218258.61     -184.95703    
    180400   328.25893     -218746.96      0             -218265.5       101.27301    
    180500   326.65714     -218745.72      0             -218266.61     -833.70465    
    180600   329.12757     -218747.08      0             -218264.34     -331.99014    
    180700   331.74853     -218743.27      0             -218256.69      124.40598    
    180800   331.38069     -218736.93      0             -218250.89      343.29902    
    180900   330.90133     -218742.36      0             -218257.02     -443.6436     
    181000   326.50642     -218744.4       0             -218265.51     -356.95637    
    181100   328.26537     -218748.9       0             -218267.42     -954.84443    
    181200   328.78314     -218747.94      0             -218265.71     -683.29184    
    181300   333.8533      -218748.09      0             -218258.42     -1265.1167    
    181400   333.95963     -218744.12      0             -218254.29     -1270.4071    
    181500   330.64399     -218742.98      0             -218258.02     -551.25825    
    181600   331.33889     -218753.14      0             -218267.16     -334.04004    
    181700   330.30577     -218752.21      0             -218267.75     -6.3926197    
    181800   330.47555     -218748.98      0             -218264.27     -858.75806    
    181900   330.65189     -218745.33      0             -218260.36     -857.55221    
    182000   335.11352     -218749.23      0             -218257.71      759.51911    
    182100   329.03673     -218747.01      0             -218264.41      605.52874    
    182200   326.9958      -218750.39      0             -218270.78      22.6217      
    182300   326.78789     -218748.17      0             -218268.86     -408.82359    
    182400   330.19973     -218747.31      0             -218263        -311.37567    
    182500   334.07723     -218750.35      0             -218260.35      410.82312    
    182600   330.39261     -218745.42      0             -218260.82     -1958.7099    
    182700   333.88927     -218752.03      0             -218262.31     -826.94649    
    182800   327.2328      -218744.51      0             -218264.56     -1245.9664    
    182900   328.31854     -218751.96      0             -218270.41     -210.71678    
    183000   326.84627     -218754.33      0             -218274.94     -69.041532    
    183100   328.64168     -218750.74      0             -218268.71      314.96997    
    183200   334.23796     -218751.32      0             -218261.09      113.28601    
    183300   330.5196      -218746.75      0             -218261.97     -243.18414    
    183400   332.80958     -218753.86      0             -218265.72     -133.42107    
    183500   327.63936     -218752.72      0             -218272.16      526.88201    
    183600   324.90716     -218752.67      0             -218276.12     -482.15714    
    183700   327.48907     -218748.8       0             -218268.47     -242.27812    
    183800   329.85392     -218744.18      0             -218260.38     -578.98388    
    183900   335.75882     -218753.15      0             -218260.68     -921.96532    
    184000   324.92111     -218743.76      0             -218267.2      -937.14281    
    184100   326.83647     -218750.11      0             -218270.73     -649.99194    
    184200   328.71584     -218751.77      0             -218269.64     -1692.5565    
    184300   333.71097     -218748.01      0             -218258.55      128.42198    
    184400   333.43426     -218747.02      0             -218257.96      362.3193     
    184500   331.2875      -218749.69      0             -218263.78     -916.53632    
    184600   329.0247      -218750.83      0             -218268.25      223.4529     
    184700   325.519       -218746.03      0             -218268.59      209.24974    
    184800   327.07505     -218746.47      0             -218266.74     -505.01561    
    184900   333.94465     -218752.09      0             -218262.28     -735.25078    
    185000   334.14312     -218741.7       0             -218251.61     -888.03175    
    185100   335.53372     -218745.93      0             -218253.8       165.90117    
    185200   330.48975     -218746.57      0             -218261.83      390.68857    
    185300   334.03737     -218755.07      0             -218265.14      751.63821    
    185400   328.99777     -218751.68      0             -218269.13      42.652552    
    185500   330.15453     -218753.83      0             -218269.58     -853.55805    
    185600   328.1117      -218744.35      0             -218263.11     -1400.5596    
    185700   338.11694     -218752.2       0             -218256.28     -1825.7658    
    185800   331.01842     -218746.11      0             -218260.6      -300.33115    
    185900   328.96426     -218748.3       0             -218265.8       118.19294    
    186000   328.70979     -218749.56      0             -218267.44     -807.03899    
    186100   328.72628     -218750.83      0             -218268.68     -891.77668    
    186200   332.04596     -218752.62      0             -218265.6      -551.60602    
    186300   331.45042     -218742.64      0             -218256.5      -862.49308    
    186400   332.82171     -218744.01      0             -218255.85     -408.40872    
    186500   333.6561      -218751.3       0             -218261.93     -49.950173    
    186600   329.13486     -218748.03      0             -218265.28     -491.04908    
    186700   329.21486     -218749.77      0             -218266.9       726.07077    
    186800   330.73854     -218752.25      0             -218267.15      343.0641     
    186900   331.55374     -218753.8       0             -218267.51     -708.2366     
    187000   328.80317     -218748.06      0             -218265.8      -1387.237     
    187100   329.79061     -218745.34      0             -218261.63     -1498.6385    
    187200   334.50519     -218751.09      0             -218260.46     -1143.9121    
    187300   329.10585     -218747.78      0             -218265.08     -859.76168    
    187400   327.26887     -218752.74      0             -218272.73     -646.42585    
    187500   327.69846     -218754.02      0             -218273.38     -328.97066    
    187600   329.62674     -218751.02      0             -218267.56     -313.66764    
    187700   330.69058     -218749.11      0             -218264.08     -1045.8414    
    187800   330.68313     -218750.54      0             -218265.52     -663.16576    
    187900   329.26492     -218750.91      0             -218267.97     -193.14213    
    188000   329.53851     -218750.9       0             -218267.56      113.65701    
    188100   331.15989     -218747.88      0             -218262.16     -267.74374    
    188200   335.7818      -218750.21      0             -218257.71     -203.2253     
    188300   329.90096     -218746.06      0             -218262.19     -340.95837    
    188400   329.93723     -218755.04      0             -218271.11      705.71387    
    188500   331.2377      -218756.39      0             -218270.56      248.12683    
    188600   328.70443     -218748.98      0             -218266.86     -594.10165    
    188700   332.39113     -218749.05      0             -218261.52      89.150495    
    188800   328.50153     -218743         0             -218261.18      16.614299    
    188900   328.56138     -218754.24      0             -218272.34     -824.07869    
    189000   329.75986     -218759.42      0             -218275.75     -1052.0047    
    189100   327.00944     -218750.3       0             -218270.67     -1293.8823    
    189200   330.61339     -218748.92      0             -218264.01     -493.02113    
    189300   332.30991     -218750.41      0             -218263.01     -424.66323    
    189400   330.72103     -218749.66      0             -218264.59     -597.43307    
    189500   330.3063      -218754.26      0             -218269.79     -220.49395    
    189600   327.95195     -218759.61      0             -218278.6       59.892717    
    189700   320.71131     -218746.2       0             -218275.8      -110.24912    
    189800   332.37993     -218758.01      0             -218270.5       339.87488    
    189900   331.12323     -218752.76      0             -218267.1       337.03038    
    190000   333.88026     -218753.12      0             -218263.41      416.62191    
    190100   335.49772     -218752.04      0             -218259.96      151.27917    
    190200   331.30955     -218743.94      0             -218258        -267.89386    
    190300   330.26433     -218747.93      0             -218263.53     -401.94945    
    190400   329.31994     -218753.42      0             -218270.4      -874.0032     
    190500   329.4244      -218754.74      0             -218271.57     -832.99818    
    190600   330.3377      -218751.08      0             -218266.57     -92.596364    
    190700   335.10162     -218750.03      0             -218258.53     -662.54494    
    190800   334.26881     -218749.69      0             -218259.41      646.81996    
    190900   331.35141     -218749.37      0             -218263.37      1101.8326    
    191000   330.66332     -218751.86      0             -218266.88      311.99937    
    191100   328.94155     -218751.46      0             -218268.99      297.69896    
    191200   331.01868     -218750.63      0             -218265.12     -340.72616    
    191300   335.65967     -218748.71      0             -218256.39     -1654.3751    
    191400   327.1263      -218738.1       0             -218258.3      -384.07556    
    191500   326.88026     -218745.29      0             -218265.85     -626.19864    
    191600   329.93766     -218752.85      0             -218268.92      270.49621    
    191700   328.80369     -218750.94      0             -218268.67      407.08234    
    191800   330.94996     -218749.95      0             -218264.54     -330.07048    
    191900   334.42858     -218745.97      0             -218255.46     -117.14243    
    192000   330.43553     -218739.81      0             -218255.16     -217.81451    
    192100   328.7278      -218749.16      0             -218267.01     -153.48496    
    192200   330.76347     -218753.46      0             -218268.32     -527.10688    
    192300   331.46921     -218752.18      0             -218266.01     -566.13479    
    192400   328.48186     -218744.6       0             -218262.81      462.23943    
    192500   330.66148     -218746.29      0             -218261.31     -335.03818    
    192600   329.62832     -218747.48      0             -218264.01     -143.70963    
    192700   328.28763     -218752.57      0             -218271.07      510.09067    
    192800   329.29095     -218757.27      0             -218274.3      -846.14644    
    192900   327.81784     -218748.15      0             -218267.34     -996.40392    
    193000   333.00483     -218748.8       0             -218260.38     -1210.4969    
    193100   331.39041     -218747.67      0             -218261.61     -949.32458    
    193200   331.1278      -218751.86      0             -218266.19     -719.64259    
    193300   327.82202     -218751         0             -218270.17      128.39442    
    193400   329.47432     -218755.07      0             -218271.83     -1351.7956    
    193500   328.39924     -218748.11      0             -218266.44     -815.89082    
    193600   330.51466     -218744.32      0             -218259.55      175.77587    
    193700   329.46937     -218742.06      0             -218258.83     -489.01459    
    193800   330.0013      -218750.72      0             -218266.7      -1860.1515    
    193900   328.03678     -218751.97      0             -218270.84     -709.8437     
    194000   327.78636     -218749.68      0             -218268.91     -596.7087     
    194100   330.9823      -218750.96      0             -218265.5      -399.83517    
    194200   332.41988     -218747.75      0             -218260.19     -270.70679    
    194300   334.51542     -218742.96      0             -218252.32      103.65895    
    194400   337.39557     -218746.67      0             -218251.81     -187.66951    
    194500   332.53195     -218751.64      0             -218263.91     -714.12799    
    194600   328.81488     -218750.54      0             -218268.26      122.36685    
    194700   327.10977     -218748.26      0             -218268.48      107.98855    
    194800   328.19115     -218747.67      0             -218266.31     -615.25991    
    194900   332.7312      -218749.9       0             -218261.88     -898.58826    
    195000   331.85583     -218746.47      0             -218259.73      1452.0031    
    195100   331.64842     -218746.86      0             -218260.43      93.74858     
    195200   329.59261     -218750.13      0             -218266.71     -816.73289    
    195300   326.15499     -218751.2       0             -218272.82     -864.82838    
    195400   328.58998     -218752.71      0             -218270.76     -966.33931    
    195500   330.66631     -218748.62      0             -218263.62      313.18995    
    195600   332.05148     -218747.38      0             -218260.35     -598.49156    
    195700   330.73323     -218747.27      0             -218262.18      114.43516    
    195800   327.80007     -218746.08      0             -218265.29      335.73758    
    195900   329.14027     -218752.77      0             -218270.02      673.58513    
    196000   329.95474     -218756.26      0             -218272.31     -66.785471    
    196100   329.29952     -218750.72      0             -218267.73     -489.33813    
    196200   329.33097     -218743.1       0             -218260.06     -1173.4339    
    196300   332.92815     -218747.18      0             -218258.87      270.89187    
    196400   330.72803     -218750.85      0             -218265.77      408.91001    
    196500   327.87283     -218751.62      0             -218270.72      629.97175    
    196600   328.13338     -218751.35      0             -218270.07     -337.34172    
    196700   329.86406     -218750.51      0             -218266.69     -524.02743    
    196800   330.80933     -218748.85      0             -218263.65     -486.24385    
    196900   333.6724      -218750.42      0             -218261.02     -444.4605     
    197000   328.77663     -218748.13      0             -218265.9      -738.47919    
    197100   329.84625     -218756.61      0             -218272.82     -209.47128    
    197200   325.78323     -218750.98      0             -218273.15     -237.92202    
    197300   326.85012     -218745.41      0             -218266.01      26.884123    
    197400   327.8978      -218742.42      0             -218261.49     -154.85271    
    197500   330.01049     -218745.23      0             -218261.2       726.96152    
    197600   327.29367     -218745.69      0             -218265.64     -5.6776834    
    197700   331.42139     -218760.37      0             -218274.27     -520.95226    
    197800   325.02533     -218758.3       0             -218281.58     -272.75883    
    197900   324.49096     -218750.65      0             -218274.72     -1485.6307    
    198000   328.5525      -218749.99      0             -218268.09     -460.62086    
    198100   329.0332      -218745.88      0             -218263.28      65.797188    
    198200   331.1022      -218746.49      0             -218260.85     -31.18855     
    198300   332.81186     -218749.11      0             -218260.97      483.95794    
    198400   332.3199      -218755.9       0             -218268.48      95.258994    
    198500   327.17896     -218753.55      0             -218273.67      74.638256    
    198600   326.91624     -218750.23      0             -218270.74      220.90404    
    198700   333.73392     -218751.92      0             -218262.43      1106.5624    
    198800   332.27486     -218748.68      0             -218261.33     -312.38893    
    198900   332.82098     -218751.5       0             -218263.34     -1160.3957    
    199000   330.3315      -218752.18      0             -218267.68     -1017.509     
    199100   327.7493      -218753.96      0             -218273.25      140.08357    
    199200   328.96727     -218764.2       0             -218281.7      -407.43418    
    199300   325.86742     -218758.46      0             -218280.5       127.41512    
    199400   326.59149     -218749.79      0             -218270.77      990.00943    
    199500   329.30292     -218749.21      0             -218266.21      252.54277    
    199600   330.9033      -218747.31      0             -218261.97     -1137.9755    
    199700   332.33261     -218747.75      0             -218260.31      850.93103    
    199800   328.31997     -218747.57      0             -218266.02     -36.386904    
    199900   323.87286     -218746.78      0             -218271.75      111.56645    
    200000   331.48921     -218756.03      0             -218269.83     -765.46069    
    200100   332.48965     -218750.18      0             -218262.51     -490.76573    
    200200   336.24481     -218749.6       0             -218256.42      219.51176    
    200300   329.56494     -218742.4       0             -218259.03     -235.74442    
    200400   330.03928     -218749.3       0             -218265.23      862.27574    
    200500   326.11274     -218747.98      0             -218269.67      785.66842    
    200600   328.96379     -218752.87      0             -218270.37      494.20836    
    200700   327.99605     -218747.9       0             -218266.82     -706.98343    
    200800   333.91609     -218748.46      0             -218258.7      -856.55542    
    200900   330.14949     -218743.67      0             -218259.44     -1692.9242    
    201000   332.17792     -218753.49      0             -218266.28     -929.03223    
    201100   332.54309     -218758.12      0             -218270.38     -1065.6176    
    201200   328.99845     -218752.1       0             -218269.55     -1365.9986    
    201300   331.05152     -218751.92      0             -218266.36     -745.5339     
    201400   331.73805     -218747.69      0             -218261.13     -128.13116    
    201500   332.90726     -218745.6       0             -218257.32      619.19641    
    201600   327.50448     -218742.14      0             -218261.78     -436.64927    
    201700   328.85368     -218752.1       0             -218269.76      41.853141    
    201800   326.2275      -218750.64      0             -218272.16      376.11006    
    201900   329.54468     -218751.1       0             -218267.76     -218.39154    
    202000   331.69475     -218747.05      0             -218260.55      38.721496    
    202100   333.3233      -218749.56      0             -218260.67     -808.19318    
    202200   330.30982     -218747.98      0             -218263.51     -426.13343    
    202300   329.64105     -218748.3       0             -218264.81      118.44379    
    202400   331.47846     -218752.39      0             -218266.21      260.81336    
    202500   333.00857     -218756.22      0             -218267.79     -486.37793    
    202600   327.85485     -218749.67      0             -218268.8      -663.17102    
    202700   329.42055     -218751.16      0             -218268        -1212.7937    
    202800   328.74739     -218747.52      0             -218265.34      448.08154    
    202900   330.92267     -218747.22      0             -218261.85      305.70436    
    203000   331.16658     -218745.42      0             -218259.69      819.6897     
    203100   331.60449     -218750.9       0             -218264.53     -129.07448    
    203200   329.00459     -218754.86      0             -218272.31      205.13244    
    203300   328.89869     -218754.48      0             -218272.08     -1099.9107    
    203400   327.1869      -218747.24      0             -218267.35     -1701.22      
    203500   332.0326      -218749.48      0             -218262.48     -1096.6511    
    203600   329.01804     -218744.92      0             -218262.35     -193.63988    
    203700   331.25722     -218749.74      0             -218263.88     -551.02172    
    203800   329.08679     -218750.21      0             -218267.53      119.41962    
    203900   330.41054     -218755.71      0             -218271.09     -79.970766    
    204000   326.32831     -218752.33      0             -218273.7       519.30213    
    204100   328.85134     -218749.84      0             -218267.51      1032.6906    
    204200   330.15768     -218745.01      0             -218260.76     -136.73483    
    204300   329.78709     -218744.41      0             -218260.71     -1491.4799    
    204400   329.43757     -218750.62      0             -218267.43     -859.77651    
    204500   326.50042     -218750.87      0             -218271.99     -188.42497    
    204600   327.85466     -218752.38      0             -218271.51      94.528876    
    204700   331.58882     -218755.48      0             -218269.13      387.90681    
    204800   328.85834     -218747.47      0             -218265.13     -692.58862    
    204900   332.22513     -218749.79      0             -218262.51      101.37743    
    205000   328.2202      -218745         0             -218263.6       146.4398     
    205100   328.23053     -218750.68      0             -218269.26      48.285833    
    205200   324.85441     -218750.5       0             -218274.03     -968.28947    
    205300   328.40291     -218753.59      0             -218271.92     -1151.4298    
    205400   329.62613     -218745.78      0             -218262.31     -975.86878    
    205500   332.65684     -218747.84      0             -218259.93     -806.20526    
    205600   329.9204      -218747.16      0             -218263.26      117.83498    
    205700   328.73706     -218750.04      0             -218267.88     -696.50544    
    205800   329.28656     -218753.77      0             -218270.8      -114.52904    
    205900   328.41386     -218752.31      0             -218270.62     -916.42941    
    206000   329.64475     -218746.53      0             -218263.04     -605.51028    
    206100   330.49424     -218743.2       0             -218258.46     -1124.1198    
    206200   333.50078     -218750.66      0             -218261.51     -1373.6315    
    206300   328.93128     -218751.37      0             -218268.92      41.625991    
    206400   327.21068     -218750.27      0             -218270.35      461.55746    
    206500   327.10563     -218747.51      0             -218267.74      633.46548    
    206600   335.39627     -218750.6       0             -218258.67     -336.37259    
    206700   334.97441     -218747.24      0             -218255.93     -151.45022    
    206800   328.77933     -218746.19      0             -218263.96      730.77781    
    206900   329.69929     -218751.35      0             -218267.77      111.03719    
    207000   333.55304     -218756.68      0             -218267.45     -174.6132     
    207100   330.67827     -218752.03      0             -218267.02     -854.68026    
    207200   330.11523     -218749.87      0             -218265.69     -550.19324    
    207300   329.2692      -218746.31      0             -218263.37     -310.58681    
    207400   331.60505     -218749.04      0             -218262.67      491.8746     
    207500   330.60539     -218750.07      0             -218265.17     -692.48347    
    207600   325.94638     -218750.31      0             -218272.24      918.47975    
    207700   327.20084     -218753.7       0             -218273.79     -452.82751    
    207800   328.36941     -218748.63      0             -218267        -502.19668    
    207900   330.64282     -218745.72      0             -218260.77     -291.59385    
    208000   333.56251     -218752.04      0             -218262.8       422.80359    
    208100   331.51082     -218754.48      0             -218268.24     -27.114537    
    208200   329.76463     -218756.18      0             -218272.51     -258.08128    
    208300   325.95435     -218749.36      0             -218271.28      1360.4495    
    208400   332.12345     -218749.26      0             -218262.13      452.67837    
    208500   331.63532     -218743.01      0             -218256.59     -809.53945    
    208600   328.90241     -218742.54      0             -218260.13     -1343.5681    
    208700   330.80412     -218751.13      0             -218265.93     -1193.9493    
    208800   330.58439     -218755.57      0             -218270.7      -978.13894    
    208900   327.6442      -218752.04      0             -218271.48     -490.6534     
    209000   330.49004     -218747.92      0             -218263.19     -12.731008    
    209100   332.45191     -218745.56      0             -218257.95     -41.279818    
    209200   329.58837     -218744.41      0             -218260.99     -1320.7163    
    209300   330.71062     -218751.66      0             -218266.6      -280.6171     
    209400   329.54137     -218751.61      0             -218268.27     -253.80724    
    209500   327.83722     -218748.3       0             -218267.46     -10.510042    
    209600   329.59826     -218751.23      0             -218267.81     -832.74379    
    209700   330.14851     -218751.65      0             -218267.41     -588.14203    
    209800   327.9257      -218748.01      0             -218267.04     -519.11965    
    209900   329.83767     -218749.99      0             -218266.22     -597.33949    
    210000   330.71331     -218750.48      0             -218265.42      184.55175    
    210100   332.01657     -218747.69      0             -218260.71     -471.2382     
    210200   333.7163      -218748.18      0             -218258.71     -275.98442    
    210300   331.40066     -218750.58      0             -218264.51      26.74008     
    210400   327.0505      -218750.51      0             -218270.82     -183.39106    
    210500   331.14707     -218756.65      0             -218270.96      21.570441    
    210600   330.96492     -218753.05      0             -218267.62      8.6863445    
    210700   330.39937     -218746.42      0             -218261.82     -67.859299    
    210800   332.61301     -218744.04      0             -218256.19     -799.03042    
    210900   335.99513     -218742.05      0             -218249.24     -64.581873    
    211000   333.50061     -218746.63      0             -218257.48      611.08915    
    211100   331.61773     -218751.28      0             -218264.89     -311.05088    
    211200   331.8439      -218755.83      0             -218269.11     -137.86267    
    211300   325.30313     -218748.94      0             -218271.82     -1453.4574    
    211400   328.69652     -218752.33      0             -218270.23     -1099.9316    
    211500   332.19601     -218748.88      0             -218261.65     -735.51906    
    211600   332.89804     -218746.17      0             -218257.9      -405.2413     
    211700   334.21174     -218752.62      0             -218262.43      701.18264    
    211800   335.09363     -218759         0             -218267.52      451.47637    
    211900   329.22608     -218752.03      0             -218269.15      497.14469    
    212000   330.51726     -218752.77      0             -218268         648.25237    
    212100   331.16589     -218751.73      0             -218266.01     -349.12856    
    212200   329.47698     -218743.47      0             -218260.22      476.19179    
    212300   332.83558     -218743.81      0             -218255.64     -441.74848    
    212400   328.62681     -218743.54      0             -218261.53     -1112.336     
    212500   327.63045     -218749.72      0             -218269.18      420.3465     
    212600   329.73371     -218754.58      0             -218270.96     -1063.414     
    212700   330.3958      -218752.23      0             -218267.63      593.96154    
    212800   331.3667      -218749.13      0             -218263.1       511.62403    
    212900   332.39016     -218742.43      0             -218254.91     -309.82212    
    213000   333.74077     -218743.08      0             -218253.58     -728.31406    
    213100   327.16159     -218745.7       0             -218265.85     -527.32406    
    213200   332.04231     -218755.9       0             -218268.89     -77.616416    
    213300   328.90838     -218752.35      0             -218269.93      452.2486     
    213400   329.8563      -218751.03      0             -218267.23     -809.70653    
    213500   330.28419     -218746.08      0             -218261.64     -214.07422    
    213600   334.54511     -218748.26      0             -218257.58      478.19703    
    213700   330.29581     -218745.9       0             -218261.45     -438.61154    
    213800   326.10151     -218749.39      0             -218271.1      -4.0859079    
    213900   329.10613     -218754.14      0             -218271.43     -599.80032    
    214000   328.41143     -218749.02      0             -218267.33     -777.84147    
    214100   330.82697     -218746.13      0             -218260.9      -103.27702    
    214200   331.6996      -218746.4       0             -218259.89     -35.826127    
    214300   327.24391     -218750.46      0             -218270.48     -1143.4087    
    214400   326.1856      -218753.34      0             -218274.92     -1305.8738    
    214500   328.43461     -218752.37      0             -218270.65     -809.12551    
    214600   333.08712     -218752.74      0             -218264.2      -589.61854    
    214700   330.53297     -218748         0             -218263.21      442.82285    
    214800   333.53609     -218753.5       0             -218264.3       164.61078    
    214900   329.85716     -218755.62      0             -218271.81      75.711124    
    215000   323.02916     -218752.98      0             -218279.19     -269.49972    
    215100   326.62244     -218752.94      0             -218273.88     -1747.2501    
    215200   330.40934     -218751.24      0             -218266.63     -1113.0112    
    215300   330.40788     -218748.51      0             -218263.9      -208.80559    
    215400   329.4703      -218747.62      0             -218264.38     -52.831631    
    215500   329.15077     -218753.21      0             -218270.44      1.0382722    
    215600   323.74337     -218752.66      0             -218277.82      8.7588829    
    215700   328.29517     -218756.35      0             -218274.83     -72.733869    
    215800   326.12658     -218746.49      0             -218268.16     -791.16476    
    215900   332.34039     -218754.24      0             -218266.79     -1248.8225    
    216000   329.84669     -218749.16      0             -218265.36     -1298.9948    
    216100   329.59859     -218748.58      0             -218265.16     -1306.8308    
    216200   330.72446     -218751.4       0             -218266.33     -729.52338    
    216300   327.85289     -218749.59      0             -218268.72      497.34538    
    216400   327.34399     -218750.87      0             -218270.75      819.28721    
    216500   324.62633     -218745.84      0             -218269.71     -231.58527    
    216600   328.84582     -218745.66      0             -218263.34     -61.960675    
    216700   333.1269      -218746.61      0             -218258.01     -69.674152    
    216800   329.27531     -218745.66      0             -218262.71      77.804163    
    216900   333.42299     -218758.8       0             -218269.76     -272.43278    
    217000   328.7754      -218751.97      0             -218269.75      274.53716    
    217100   329.72082     -218751.81      0             -218268.2      -319.12291    
    217200   327.316       -218744.46      0             -218264.38     -1878.1656    
    217300   328.92133     -218740.12      0             -218257.69      756.19942    
    217400   336.28258     -218746.85      0             -218253.62     -1041.3623    
    217500   334.16086     -218752.32      0             -218262.2      -913.6861     
    217600   327.97858     -218750.2       0             -218269.15     -440.67902    
    217700   333.26148     -218758.79      0             -218269.99     -800.20023    
    217800   330.72465     -218753.09      0             -218268.01     -1076.6045    
    217900   332.19281     -218748.6       0             -218261.37     -132.91951    
    218000   333.53108     -218750.21      0             -218261.02     -773.25746    
    218100   327.62363     -218750.94      0             -218270.41     -319.10073    
    218200   326.51041     -218753.82      0             -218274.92     -69.401361    
    218300   326.73798     -218750.62      0             -218271.39      937.03266    
    218400   333.11876     -218754         0             -218265.41      291.1241     
    218500   331.13962     -218750.54      0             -218264.85     -133.01442    
    218600   329.86384     -218748.83      0             -218265.01      112.79392    
    218700   328.30403     -218748.1       0             -218266.58      1003.7119    
    218800   330.73809     -218752.04      0             -218266.94     -981.16168    
    218900   329.8582      -218750.39      0             -218266.58     -536.07717    
    219000   328.95558     -218749.47      0             -218266.98     -944.36596    
    219100   330.29641     -218750.14      0             -218265.69     -2017.0114    
    219200   333.37139     -218751.18      0             -218262.22     -565.88283    
    219300   330.94519     -218746.35      0             -218260.95      106.21388    
    219400   330.76496     -218751.01      0             -218265.87      556.06584    
    219500   330.16339     -218757.82      0             -218273.56     -45.515735    
    219600   326.42177     -218752.64      0             -218273.87     -649.41307    
    219700   330.37458     -218751.99      0             -218267.42      193.69749    
    219800   331.58579     -218749.85      0             -218263.51     -274.01694    
    219900   332.61393     -218752.56      0             -218264.71      550.5927     
    220000   329.86245     -218751.61      0             -218267.79      779.51314    
    220100   328.60187     -218751.78      0             -218269.82     -691.11727    
    220200   327.68571     -218750.79      0             -218270.17     -239.54393    
    220300   328.07247     -218746.61      0             -218265.42     -45.939713    
    220400   333.49422     -218749.11      0             -218259.97     -292.22441    
    220500   334.17058     -218751.71      0             -218261.58     -617.08747    
    220600   327.14699     -218749.84      0             -218270.01      677.85258    
    220700   328.12506     -218754.21      0             -218272.95     -983.25913    
    220800   329.05177     -218753.29      0             -218270.66     -813.37311    
    220900   330.95544     -218752.07      0             -218266.65     -280.87502    
    221000   329.05314     -218746.59      0             -218263.97      447.3827     
    221100   328.97996     -218746.56      0             -218264.04      206.24963    
    221200   332.07307     -218752.66      0             -218265.6      -4.7664464    
    221300   328.34228     -218748.66      0             -218267.07      97.363172    
    221400   329.64176     -218749.99      0             -218266.5      -519.08386    
    221500   331.04699     -218752.08      0             -218266.53     -67.139004    
    221600   324.71277     -218748.76      0             -218272.5      -816.91156    
    221700   326.09205     -218756.75      0             -218278.47      222.48013    
    221800   327.10445     -218752.7       0             -218272.93     -1030.658     
    221900   330.35558     -218750.29      0             -218265.75     -234.8432     
    222000   328.96482     -218746.98      0             -218264.48     -533.59328    
    222100   329.32765     -218747.16      0             -218264.13     -1056.8063    
    222200   327.13588     -218748.78      0             -218268.96     -766.69323    
    222300   328.07302     -218757.17      0             -218275.98      59.67257     
    222400   326.20008     -218754.68      0             -218276.24     -30.432663    
    222500   331.248       -218751.23      0             -218265.38     -627.83132    
    222600   330.98277     -218750.32      0             -218264.87      277.14664    
    222700   330.86318     -218750.17      0             -218264.89     -167.53824    
    222800   329.50418     -218751.56      0             -218268.27     -1839.6767    
    222900   324.15776     -218749.06      0             -218273.61      55.374186    
    223000   324.01564     -218750.69      0             -218275.46     -196.34192    
    223100   332.94468     -218752.94      0             -218264.6      -96.641423    
    223200   332.18042     -218748.94      0             -218261.72     -241.46874    
    223300   328.13462     -218745.38      0             -218264.1       199.95708    
    223400   326.01358     -218749.21      0             -218271.04      346.26608    
    223500   330.2553      -218758.36      0             -218273.97     -230.58999    
    223600   330.54972     -218752.55      0             -218267.73      370.73446    
    223700   331.98525     -218746.8       0             -218259.87     -221.7747     
    223800   332.73771     -218749.01      0             -218260.98      63.520491    
    223900   328.78668     -218750.2       0             -218267.96      85.601074    
    224000   327.34971     -218750.29      0             -218270.16      169.71772    
    224100   325.65467     -218745.73      0             -218268.08     -477.93566    
    224200   329.5907      -218747.93      0             -218264.51      457.59284    
    224300   332.37022     -218743.9       0             -218256.41     -1138.1535    
    224400   338.03332     -218746.22      0             -218250.42     -437.4811     
    224500   335.3423      -218750.06      0             -218258.2      -182.0237     
    224600   330.22895     -218749.14      0             -218264.79     -1087.7183    
    224700   328.41141     -218750.38      0             -218268.69     -808.81153    
    224800   327.77153     -218752.16      0             -218271.42     -1064.331     
    224900   327.83938     -218748.84      0             -218267.99     -1212.5502    
    225000   329.99762     -218742.67      0             -218258.65     -1081.3142    
    225100   334.47607     -218748.37      0             -218257.79     -800.32631    
    225200   328.92195     -218746.02      0             -218263.59     -691.37534    
    225300   330.32564     -218752.47      0             -218267.98     -489.02184    
    225400   333.42592     -218756.93      0             -218267.89      540.62379    
    225500   331.70377     -218754.55      0             -218268.03     -7.9108151    
    225600   328.54414     -218752.3       0             -218270.42      259.54079    
    225700   328.15951     -218749.73      0             -218268.42      285.79748    
    225800   328.45353     -218745.14      0             -218263.39     -146.82009    
    225900   333.58482     -218749.18      0             -218259.91      450.74892    
    226000   332.73418     -218752.16      0             -218264.13     -866.05629    
    226100   330.85923     -218757.82      0             -218272.54      87.057753    
    226200   329.49956     -218755.57      0             -218272.29     -522.95432    
    226300   331.24714     -218753.13      0             -218267.29     -466.63765    
    226400   331.26672     -218750.34      0             -218264.46     -892.34993    
    226500   329.09844     -218747.61      0             -218264.91     -987.08131    
    226600   330.89733     -218751.4       0             -218266.07     -390.80052    
    226700   329.07148     -218750.61      0             -218267.95     -172.19124    
    226800   326.5952      -218748.46      0             -218269.44     -424.40232    
    226900   328.56274     -218752.02      0             -218270.11      339.45406    
    227000   331.95779     -218755.6       0             -218268.71      53.931875    
    227100   332.95215     -218753.46      0             -218265.12      59.912748    
    227200   332.03208     -218748.52      0             -218261.53     -940.92847    
    227300   328.60386     -218743.01      0             -218261.04     -1207.8842    
    227400   328.12955     -218749.27      0             -218268        -188.19299    
    227500   325.08491     -218749.77      0             -218272.97     -924.6842     
    227600   328.37322     -218753.28      0             -218271.65     -1120.0247    
    227700   332.33308     -218749.76      0             -218262.32     -830.12827    
    227800   331.39829     -218744.84      0             -218258.77     -320.20605    
    227900   331.44463     -218749.18      0             -218263.04     -73.17977     
    228000   327.01687     -218747.44      0             -218267.8       273.15888    
    228100   325.13464     -218747.18      0             -218270.3      -351.5618     
    228200   328.83971     -218752.33      0             -218270.02     -369.68697    
    228300   334.0528      -218753.83      0             -218263.87     -933.35603    
    228400   332.41874     -218747.4       0             -218259.84     -554.75131    
    228500   331.9527      -218749.75      0             -218262.87      700.75761    
    228600   326.55165     -218749.11      0             -218270.15     -405.23363    
    228700   322.68804     -218745.32      0             -218272.03     -407.19973    
    228800   330.59072     -218753.39      0             -218268.5      -281.93798    
    228900   332.43885     -218749.42      0             -218261.82     -263.1059     
    229000   332.79195     -218737.74      0             -218249.62     -760.08336    
    229100   338.97405     -218743.85      0             -218246.67      738.88595    
    229200   333.86353     -218745.16      0             -218255.48     -1438.6702    
    229300   331.23878     -218749.94      0             -218264.11     -349.55918    
    229400   328.26042     -218751.1       0             -218269.63     -682.84177    
    229500   326.09417     -218749.66      0             -218271.37     -1621.326     
    229600   329.02787     -218751.03      0             -218268.44     -1218.0278    
    229700   327.3217      -218740.99      0             -218260.9      -1189.8665    
    229800   334.64085     -218750.39      0             -218259.57     -394.43815    
    229900   333.05601     -218754.34      0             -218265.84      135.41956    
    230000   328.83526     -218757.14      0             -218274.83      111.59673    
    230100   329.25788     -218754.64      0             -218271.72      421.84944    
    230200   331.46433     -218751.16      0             -218264.99      436.61161    
    230300   331.56603     -218749.42      0             -218263.11     -135.91519    
    230400   328.94418     -218747.78      0             -218265.31      234.22888    
    230500   332.31428     -218759.75      0             -218272.34     -488.40406    
    230600   327.34884     -218757.33      0             -218277.2      -2510.2915    
    230700   324.9493      -218748.46      0             -218271.85     -28.115159    
    230800   330.09629     -218750.93      0             -218266.78     -512.97948    
    230900   334.16602     -218754.89      0             -218264.77     -1450.0703    
    231000   329.92908     -218750.42      0             -218266.5      -23.096166    
    231100   329.69284     -218753.5       0             -218269.93      227.82625    
    231200   324.03455     -218752.44      0             -218277.18      39.017575    
    231300   325.76672     -218753.17      0             -218275.36      433.53748    
    231400   330.14498     -218750.72      0             -218266.49     -401.00819    
    231500   331.14651     -218749.26      0             -218263.57     -308.84487    
    231600   330.09234     -218749.61      0             -218265.46     -631.28955    
    231700   328.59901     -218750.84      0             -218268.88      30.027798    
    231800   324.78766     -218752.25      0             -218275.88     -523.63964    
    231900   325.9134      -218756.91      0             -218278.89      753.1381     
    232000   331.15925     -218755.21      0             -218269.5      -29.987799    
    232100   326.74727     -218743.4       0             -218264.15     -412.5421     
    232200   333.5078      -218752.42      0             -218263.26     -572.87086    
    232300   331.87726     -218753.31      0             -218266.54     -388.15374    
    232400   328.93586     -218755.34      0             -218272.88     -87.853505    
    232500   328.37324     -218754.02      0             -218272.39     -12.848705    
    232600   329.7911      -218745.96      0             -218262.25     -283.6981     
    232700   332.80035     -218745.73      0             -218257.61     -1053.5144    
    232800   332.44896     -218750.34      0             -218262.73      299.76695    
    232900   324.49497     -218744.83      0             -218268.89     -619.17778    
    233000   330.13899     -218754.07      0             -218269.85      294.71703    
    233100   327.85984     -218748.99      0             -218268.12      1266.969     
    233200   330.91305     -218746.84      0             -218261.49      4.3602283    
    233300   333.90593     -218743.61      0             -218253.86      240.51826    
    233400   331.99893     -218745.96      0             -218259.01     -191.99243    
    233500   330.09009     -218747.99      0             -218263.84      301.27847    
    233600   324.13398     -218742.77      0             -218267.35     -957.0903     
    233700   328.59353     -218751.23      0             -218269.28     -772.14421    
    233800   330.18052     -218752.06      0             -218267.78     -527.58383    
    233900   332.74176     -218748.53      0             -218260.5       164.19807    
    234000   332.0234      -218744.11      0             -218257.12      137.45339    
    234100   328.67643     -218746.09      0             -218264.01     -793.89197    
    234200   328.12178     -218750.79      0             -218269.53     -349.52885    
    234300   329.2483      -218750.93      0             -218268.02     -814.29207    
    234400   331.59922     -218752.27      0             -218265.91     -374.84648    
    234500   333.11288     -218751.45      0             -218262.87      174.9935     
    234600   333.36965     -218749.2       0             -218260.25      246.75649    
    234700   329.8155      -218745.86      0             -218262.11      230.75844    
    234800   327.26843     -218749.51      0             -218269.5      -165.68068    
    234900   327.08124     -218752.55      0             -218272.81     -16.392603    
    235000   331.23053     -218755.38      0             -218269.56     -1225.7684    
    235100   332.26985     -218747.54      0             -218260.19     -97.5465      
    235200   332.52921     -218746.84      0             -218259.12      388.96137    
    235300   332.12751     -218750.19      0             -218263.06     -374.48035    
    235400   329.68243     -218751.42      0             -218267.87     -273.81724    
    235500   330.45386     -218755         0             -218270.32     -21.738308    
    235600   329.84695     -218753.87      0             -218270.07      48.156777    
    235700   329.88476     -218748.51      0             -218264.67     -797.54599    
    235800   334.58046     -218749.38      0             -218258.64     -656.6247     
    235900   331.40868     -218746.23      0             -218260.14     -24.582046    
    236000   329.9966      -218753.13      0             -218269.12     -151.84446    
    236100   327.43174     -218751.41      0             -218271.16      589.22105    
    236200   327.97421     -218749.71      0             -218268.67     -301.77325    
    236300   330.13935     -218748.6       0             -218264.38     -499.82       
    236400   333.29382     -218747.5       0             -218258.65     -905.39966    
    236500   334.60258     -218739.98      0             -218249.22     -1303.0629    
    236600   333.56945     -218742.97      0             -218253.72     -1162.7182    
    236700   332.53052     -218749.42      0             -218261.69     -663.1972     
    236800   329.55055     -218749.75      0             -218266.39      233.0325     
    236900   331.76163     -218757.38      0             -218270.78     -505.867      
    237000   324.69175     -218749.24      0             -218273.01     -82.320333    
    237100   330.89319     -218752.8       0             -218267.47      2.6726259    
    237200   335.12146     -218751.44      0             -218259.91      576.35312    
    237300   329.14288     -218743.69      0             -218260.93      22.394328    
    237400   326.07869     -218743.62      0             -218265.36     -449.17328    
    237500   326.38705     -218746.96      0             -218268.24      139.7686     
    237600   327.57217     -218749.05      0             -218268.59     -670.92972    
    237700   326.21901     -218745.51      0             -218267.04      361.2186     
    237800   329.85811     -218749.69      0             -218265.88     -836.16905    
    237900   327.43011     -218745.29      0             -218265.04     -1846.572     
    238000   333.89736     -218746.04      0             -218256.31     -810.43749    
    238100   338.34011     -218751.43      0             -218255.18     -185.65905    
    238200   330.02268     -218748.18      0             -218264.13     -576.47878    
    238300   327.79894     -218749.32      0             -218268.53      390.53467    
    238400   330.16781     -218753.81      0             -218269.55     -14.709391    
    238500   330.15609     -218752.46      0             -218268.22      491.703      
    238600   332.50669     -218749.02      0             -218261.33      139.8196     
    238700   333.15068     -218745.93      0             -218257.29      268.02524    
    238800   333.62352     -218751.75      0             -218262.42     -1170.3773    
    238900   326.13475     -218749.49      0             -218271.14     -593.21526    
    239000   328.55505     -218752.35      0             -218270.46     -345.945      
    239100   328.66405     -218748.6       0             -218266.54     -1024.4757    
    239200   331.57648     -218748.3       0             -218261.97      294.57549    
    239300   328.869       -218741.46      0             -218259.1       248.04954    
    239400   331.81927     -218742.52      0             -218255.84     -466.48567    
    239500   330.05769     -218747.1       0             -218263        -612.9239     
    239600   326.75484     -218748.22      0             -218268.96      376.27053    
    239700   328.32204     -218752.06      0             -218270.51     -380.95288    
    239800   331.58203     -218753.08      0             -218266.75     -344.41363    
    239900   332.52683     -218745.76      0             -218258.04     -103.86674    
    240000   334.22221     -218745.75      0             -218255.54     -71.137966    
    240100   333.65113     -218751.24      0             -218261.86      480.90993    
    240200   330.18756     -218750.04      0             -218265.75      75.820027    
    240300   330.95418     -218752.39      0             -218266.98     -595.07885    
    240400   329.30801     -218751.28      0             -218268.27     -1485.7605    
    240500   328.48813     -218750.48      0             -218268.68     -1626.4681    
    240600   329.86052     -218749.24      0             -218265.43     -967.17447    
    240700   332.56492     -218748.13      0             -218260.36     -337.57722    
    240800   334.32304     -218750.58      0             -218260.22     -606.58278    
    240900   326.59958     -218748.14      0             -218269.11     -145.35641    
    241000   330.07631     -218757.92      0             -218273.8       465.21921    
    241100   329.55021     -218754.55      0             -218271.2       513.90713    
    241200   330.99703     -218752.36      0             -218266.88     -349.10339    
    241300   330.22134     -218748.11      0             -218263.77     -945.36067    
    241400   332.63234     -218751.65      0             -218263.77     -64.881188    
    241500   328.78908     -218747.52      0             -218265.28     -604.25506    
    241600   326.5939      -218747.4       0             -218268.38     -230.36861    
    241700   329.78705     -218754.98      0             -218271.28     -101.18893    
    241800   329.1309      -218754.43      0             -218271.68     -79.467448    
    241900   332.08998     -218752.14      0             -218265.06     -1253.0121    
    242000   334.92979     -218750.96      0             -218259.72     -458.42855    
    242100   329.38558     -218743.52      0             -218260.41     -1287.4807    
    242200   329.97079     -218754.09      0             -218270.12     -664.81459    
    242300   330.60272     -218758.27      0             -218273.37      218.8244     
    242400   329.74378     -218753.63      0             -218269.99      126.56499    
    242500   328.47792     -218746.64      0             -218264.85     -126.38111    
    242600   333.28529     -218750.69      0             -218261.85      67.286162    
    242700   330.96667     -218748.94      0             -218263.51      534.82837    
    242800   330.33998     -218757.06      0             -218272.55      601.61761    
    242900   324.81309     -218751.86      0             -218275.45      338.91827    
    243000   332.15093     -218756.29      0             -218269.12     -1137.2414    
    243100   328.18421     -218745.06      0             -218263.71     -122.92871    
    243200   329.66787     -218746.88      0             -218263.35     -679.04209    
    243300   326.15506     -218744.42      0             -218266.04      242.80809    
    243400   326.42928     -218750.66      0             -218271.88      196.81746    
    243500   324.23934     -218755.45      0             -218279.88     -96.2659      
    243600   326.96563     -218754         0             -218274.43     -1106.2893    
    243700   328.29387     -218749.07      0             -218267.56      83.712919    
    243800   331.35823     -218750.44      0             -218264.44      108.90357    
    243900   331.1798      -218750.14      0             -218264.4      -359.15635    
    244000   329.57556     -218752.36      0             -218268.96      255.44538    
    244100   325.54443     -218753.97      0             -218276.49      516.0423     
    244200   326.22788     -218755.14      0             -218276.65      146.59692    
    244300   328.61821     -218748.1       0             -218266.11     -1547.0698    
    244400   330.55907     -218747.77      0             -218262.93     -978.53846    
    244500   331.87122     -218751.31      0             -218264.55      245.37155    
    244600   329.04303     -218750.27      0             -218267.66     -12.311126    
    244700   327.98454     -218753.78      0             -218272.72     -156.77556    
    244800   324.01369     -218752.8       0             -218277.56      256.3095     
    244900   330.47648     -218755.74      0             -218271.03     -1265.4387    
    245000   330.6923      -218748.11      0             -218263.08     -1285.303     
    245100   332.27444     -218750.62      0             -218263.27     -1203.3848    
    245200   330.65624     -218752.82      0             -218267.84     -611.74488    
    245300   325.15234     -218750.18      0             -218273.28      49.407695    
    245400   326.86689     -218751.95      0             -218272.53      546.4302     
    245500   334.51987     -218751.74      0             -218261.1       265.93681    
    245600   331.64854     -218746.69      0             -218260.26      413.25117    
    245700   333.05583     -218754.09      0             -218265.6       118.73448    
    245800   326.55505     -218750.06      0             -218271.1      -782.93258    
    245900   327.5227      -218750.61      0             -218270.23     -561.65386    
    246000   329.03123     -218748.53      0             -218265.93     -315.00193    
    246100   331.99882     -218747.19      0             -218260.25      214.62947    
    246200   335.63245     -218740.41      0             -218248.13     -2062.6777    
    246300   334.21432     -218741.53      0             -218251.33     -1014.1479    
    246400   334.98188     -218751         0             -218259.68     -660.30021    
    246500   327.18056     -218745.58      0             -218265.7      -596.18704    
    246600   330.18832     -218753.95      0             -218269.65      309.80886    
    246700   327.93991     -218753.23      0             -218272.23      480.29532    
    246800   330.41785     -218752.76      0             -218268.13      1046.3004    
    246900   328.76153     -218741.91      0             -218259.71      968.13074    
    247000   334.57542     -218750.91      0             -218260.19      327.73089    
    247100   333.27168     -218755.38      0             -218266.57     -206.29417    
    247200   329.55291     -218753.15      0             -218269.79      330.1344     
    247300   327.32504     -218748.75      0             -218268.66      681.68211    
    247400   330.68355     -218750.87      0             -218265.86     -600.33674    
    247500   331.10854     -218747.39      0             -218261.75     -447.89346    
    247600   335.36038     -218746.55      0             -218254.67      545.6812     
    247700   335.00457     -218746.97      0             -218255.62     -9.1396539    
    247800   328.42901     -218748.4       0             -218266.69      584.80176    
    247900   328.93279     -218752.19      0             -218269.74     -731.89245    
    248000   327.97024     -218750.28      0             -218269.24     -306.99098    
    248100   330.47106     -218749.75      0             -218265.05     -279.50282    
    248200   334.21532     -218749.1       0             -218258.9       107.1879     
    248300   335.31435     -218750.8       0             -218258.99      247.95018    
    248400   329.19572     -218752.93      0             -218270.09     -792.71441    
    248500   329.62034     -218755.62      0             -218272.16     -719.84183    
    248600   332.57916     -218755.87      0             -218268.07     -156.83294    
    248700   330.57607     -218747.05      0             -218262.18     -646.28846    
    248800   333.07622     -218748.36      0             -218259.83     -212.26627    
    248900   329.45637     -218751.49      0             -218268.27      56.762893    
    249000   327.21186     -218754.81      0             -218274.88     -1240.4713    
    249100   328.82523     -218752.68      0             -218270.39     -58.555301    
    249200   328.2155      -218745.13      0             -218263.73     -168.48283    
    249300   328.04109     -218741.86      0             -218260.72      89.35225     
    249400   328.62317     -218745.04      0             -218263.04     -343.06756    
    249500   326.67205     -218751.26      0             -218272.13     -705.78596    
    249600   326.86026     -218755.77      0             -218276.36      972.32478    
    249700   334.10858     -218762.83      0             -218272.78      409.91796    
    249800   330.14263     -218751.82      0             -218267.59      776.44297    
    249900   330.08062     -218747.08      0             -218262.94      166.04668    
    250000   332.61427     -218748.98      0             -218261.13      154.80249    
    250100   332.63923     -218752.68      0             -218264.79     -454.1372     
    250200   327.99261     -218755.35      0             -218274.28     -1589.945     
    250300   327.73222     -218753.51      0             -218272.82     -1009.5309    
    250400   329.75812     -218748.82      0             -218265.16     -843.89182    
    250500   329.5145      -218746.36      0             -218263.06     -566.18306    
    250600   329.119       -218746.95      0             -218264.23      1228.495     
    250700   330.97162     -218756.01      0             -218270.57      757.36723    
    250800   327.13936     -218757.93      0             -218278.11     -515.53877    
    250900   330.75968     -218759.47      0             -218274.34     -877.62273    
    251000   327.16083     -218748.57      0             -218268.71     -735.20984    
    251100   328.87743     -218746.72      0             -218264.35     -23.88095     
    251200   333.27878     -218751.87      0             -218263.04     -63.900716    
    251300   328.3803      -218747.56      0             -218265.92     -467.96695    
    251400   326.37178     -218755.35      0             -218276.66     -225.01409    
    251500   326.02084     -218755.15      0             -218276.97      7.853113     
    251600   329.76003     -218753.6       0             -218269.94     -612.08017    
    251700   332.28701     -218754.34      0             -218266.97     -393.69802    
    251800   326.74785     -218744.37      0             -218265.13     -29.565224    
    251900   331.29529     -218748.86      0             -218262.95      261.95086    
    252000   334.28506     -218747.91      0             -218257.61     -475.58615    
    252100   332.99229     -218745.34      0             -218256.94      671.31768    
    252200   331.98959     -218752.9       0             -218265.96      879.53124    
    252300   326.48155     -218748.27      0             -218269.41      18.834771    
    252400   330.46218     -218753.55      0             -218268.85     -453.04505    
    252500   327.74388     -218745.54      0             -218264.84     -1948.5479    
    252600   331.98235     -218742.87      0             -218255.95     -405.65521    
    252700   333.97574     -218746.31      0             -218256.46     -723.84855    
    252800   329.51226     -218746.1       0             -218262.8      -246.35731    
    252900   325.92198     -218743.44      0             -218265.41     -10.648588    
    253000   332.26289     -218753.71      0             -218266.37      418.3258     
    253100   330.06651     -218750.94      0             -218266.83     -130.46506    
    253200   331.54814     -218753.88      0             -218267.6       792.79339    
    253300   327.61148     -218749.45      0             -218268.94     -569.14458    
    253400   330.53167     -218751.73      0             -218266.94      791.05308    
    253500   334.68677     -218754.5       0             -218263.61     -187.96562    
    253600   334.2609      -218749.13      0             -218258.87     -1193.5217    
    253700   331.50948     -218744.52      0             -218258.29     -835.0131     
    253800   330.64333     -218751.46      0             -218266.5      -874.33069    
    253900   326.36305     -218750.34      0             -218271.66     -383.91206    
    254000   327.6494      -218750.5       0             -218269.93     -486.24034    
    254100   331.27362     -218749.49      0             -218263.61      328.38786    
    254200   333.34459     -218746.5       0             -218257.58      523.98674    
    254300   330.31057     -218744.07      0             -218259.6      -408.66332    
    254400   326.20735     -218751.76      0             -218273.31     -372.0297     
    254500   327.70028     -218752.94      0             -218272.29      603.10744    
    254600   329.62291     -218750.47      0             -218267.01      1365.2862    
    254700   329.60875     -218744.74      0             -218261.3       826.53341    
    254800   329.09224     -218742.53      0             -218259.85      708.84509    
    254900   332.19922     -218753.41      0             -218266.17     -549.9089     
    255000   326.11453     -218751.45      0             -218273.13     -489.16198    
    255100   324.69447     -218748.47      0             -218272.24     -510.39549    
    255200   331.41854     -218752.58      0             -218266.48     -1133.616     
    255300   329.86666     -218747.6       0             -218263.78     -884.4661     
    255400   332.27385     -218750.85      0             -218263.49     -984.07274    
    255500   332.24381     -218752.45      0             -218265.15     -144.89568    
    255600   329.04805     -218756.41      0             -218273.79     -283.39572    
    255700   325.73718     -218756.07      0             -218278.3      -670.74232    
    255800   327.88464     -218754.62      0             -218273.71      235.04572    
    255900   326.73589     -218747         0             -218267.78      1471.9112    
    256000   329.71109     -218748.42      0             -218264.82      372.63109    
    256100   329.85542     -218748.06      0             -218264.26      780.07317    
    256200   329.54581     -218746.09      0             -218262.74      530.99388    
    256300   331.34725     -218750.61      0             -218264.62      581.20173    
    256400   325.84913     -218747.43      0             -218269.51     -572.87775    
    256500   329.02307     -218754.23      0             -218271.65     -1590.4       
    256600   327.89916     -218747.26      0             -218266.32     -1124.8135    
    256700   331.01627     -218744.78      0             -218259.27     -1226.8689    
    256800   332.23529     -218746.97      0             -218259.68     -854.73877    
    256900   329.94903     -218748.63      0             -218264.69     -406.43723    
    257000   328.77521     -218749.73      0             -218267.51     -473.98676    
    257100   333.74625     -218757.54      0             -218268.03      178.94355    
    257200   329.69374     -218752.95      0             -218269.38      210.49718    
    257300   325.96615     -218746.67      0             -218268.57      687.80557    
    257400   329.86411     -218745.72      0             -218261.9       264.67507    
    257500   332.97758     -218745.3       0             -218256.92      590.76898    
    257600   331.24782     -218748.24      0             -218262.4      -967.83053    
    257700   329.34336     -218752.33      0             -218269.27     -877.85494    
    257800   327.19408     -218748.62      0             -218268.72     -28.801199    
    257900   332.47746     -218753.44      0             -218265.79     -445.46556    
    258000   333.11593     -218751.38      0             -218262.79     -536.43025    
    258100   333.28173     -218746.34      0             -218257.51      64.987923    
    258200   331.77092     -218742         0             -218255.39      110.471      
    258300   331.01699     -218749.79      0             -218264.28      305.95873    
    258400   327.82        -218749.56      0             -218268.74     -56.401491    
    258500   329.1675      -218752.47      0             -218269.68      703.57711    
    258600   329.19073     -218750.55      0             -218267.72     -497.50476    
    258700   334.40839     -218751.31      0             -218260.83      525.69709    
    258800   335.6442      -218749.23      0             -218256.94      225.71413    
    258900   328.81219     -218746.58      0             -218264.3       354.06731    
    259000   330.46957     -218755.65      0             -218270.94      33.074055    
    259100   330.07969     -218754.02      0             -218269.89     -924.32823    
    259200   330.52528     -218750.53      0             -218265.74     -608.52453    
    259300   330.78799     -218746.43      0             -218261.26     -675.98785    
    259400   332.44814     -218744.58      0             -218256.97     -309.92293    
    259500   332.00407     -218744.93      0             -218257.97     -488.9565     
    259600   330.73751     -218752.24      0             -218267.15      740.43475    
    259700   328.9119      -218753.92      0             -218271.5      -70.588377    
    259800   333.60201     -218758.12      0             -218268.82      937.04428    
    259900   333.29768     -218751.61      0             -218262.76      514.75908    
    260000   335.45302     -218749.82      0             -218257.8       11.996483    
    260100   333.39135     -218752.12      0             -218263.13      448.31521    
    260200   331.12411     -218758.4       0             -218272.73      731.19758    
    260300   326.04893     -218750.35      0             -218272.13      502.97186    
    260400   330.64696     -218751.37      0             -218266.41     -739.66824    
    260500   331.10065     -218746.55      0             -218260.92     -1358.6473    
    260600   334.86958     -218752.22      0             -218261.06      357.43352    
    260700   326.01211     -218749.75      0             -218271.58     -100.28376    
    260800   326.60496     -218754.72      0             -218275.68     -321.31214    
    260900   329.82223     -218753.95      0             -218270.19     -139.59996    
    261000   331.78243     -218751.25      0             -218264.62      374.35823    
    261100   330.20842     -218747.9       0             -218263.58      460.33649    
    261200   328.36116     -218748.02      0             -218266.41      279.48314    
    261300   328.97732     -218758.77      0             -218276.25      51.806116    
    261400   327.14942     -218756.28      0             -218276.44     -530.02322    
    261500   331.27849     -218755.4       0             -218269.51      287.16145    
    261600   333.104       -218755.38      0             -218266.81     -711.89416    
    261700   327.95579     -218747.72      0             -218266.7      -654.58623    
    261800   330.60785     -218749.46      0             -218264.55      1293.2672    
    261900   328.60259     -218743.35      0             -218261.38      414.38411    
    262000   333.48224     -218749.75      0             -218260.63      246.91981    
    262100   330.77739     -218752.02      0             -218266.86      625.26031    
    262200   328.71852     -218754.4       0             -218272.27      324.61856    
    262300   327.22798     -218751.71      0             -218271.76      169.29218    
    262400   330.02351     -218748.29      0             -218264.24     -1326.6873    
    262500   334.33213     -218747.73      0             -218257.36      425.03586    
    262600   332.33029     -218746.99      0             -218259.56      441.49705    
    262700   332.51166     -218752.14      0             -218264.44      436.09391    
    262800   328.55111     -218750.84      0             -218268.95     -702.36787    
    262900   328.7391      -218752.01      0             -218269.85     -362.19444    
    263000   333.43995     -218753.6       0             -218264.54     -538.69264    
    263100   331.61997     -218741.65      0             -218255.26     -1411.7299    
    263200   334.79704     -218749.2       0             -218258.15      288.50653    
    263300   331.27942     -218750.12      0             -218264.22     -509.7016     
    263400   328.03677     -218748.91      0             -218267.77     -1469.6409    
    263500   329.74151     -218752.39      0             -218268.76      72.530097    
    263600   332.34818     -218753.97      0             -218266.51     -109.9734     
    263700   335.30433     -218750.78      0             -218258.98      178.21734    
    263800   333.39925     -218744.96      0             -218255.96      373.26776    
    263900   331.37251     -218748.77      0             -218262.74      246.16563    
    264000   329.68935     -218753.4       0             -218269.84     -158.88283    
    264100   330.17612     -218754.49      0             -218270.22      295.8001     
    264200   330.47568     -218749.59      0             -218264.88     -226.04939    
    264300   333.17045     -218749.16      0             -218260.5      -489.56757    
    264400   326.59553     -218741.48      0             -218262.45      301.96491    
    264500   329.8899      -218757.53      0             -218273.68     -92.213991    
    264600   326.79763     -218754.1       0             -218274.78      145.24644    
    264700   328.69009     -218750.09      0             -218267.99     -302.75917    
    264800   330.04886     -218748.63      0             -218264.54     -75.537187    
    264900   330.42091     -218748.55      0             -218263.91      128.98329    
    265000   330.94363     -218751.78      0             -218266.38     -693.72287    
    265100   328.24934     -218757.79      0             -218276.34      350.88522    
    265200   326.98393     -218756.16      0             -218276.57     -249.54376    
    265300   328.64988     -218752.2       0             -218270.17     -765.62778    
    265400   331.4331      -218752.8       0             -218266.68      1278.8864    
    265500   328.02217     -218746.82      0             -218265.71     -69.416776    
    265600   332.29599     -218750.75      0             -218263.37      879.41944    
    265700   330.39435     -218743.22      0             -218258.62      226.26558    
    265800   330.91256     -218744.57      0             -218259.22     -82.459984    
    265900   331.70315     -218754.04      0             -218267.52     -201.50056    
    266000   331.40401     -218757.31      0             -218271.24     -1084.3373    
    266100   329.11862     -218752.56      0             -218269.83     -1023.4862    
    266200   331.87465     -218749.96      0             -218263.2      -72.437021    
    266300   336.94358     -218751.28      0             -218257.08     -291.66139    
    266400   330.22798     -218744.43      0             -218260.08      276.61011    
    266500   330.28366     -218748.37      0             -218263.93     -262.25325    
    266600   328.08073     -218751.22      0             -218270.02     -937.12827    
    266700   329.44233     -218755.06      0             -218271.87     -803.93353    
    266800   328.04307     -218752.09      0             -218270.95      235.42249    
    266900   331.39268     -218748.24      0             -218262.18      87.540889    
    267000   332.71264     -218746.42      0             -218258.42     -919.13897    
    267100   329.13036     -218745.79      0             -218263.05      642.87887    
    267200   329.26187     -218752.26      0             -218269.33     -1161.9986    
    267300   327.06865     -218750.3       0             -218270.58     -1763.1638    
    267400   326.71314     -218748.77      0             -218269.58     -1188.1919    
    267500   330.83835     -218751.65      0             -218266.41     -1064.9817    
    267600   332.08211     -218744.93      0             -218257.86     -80.292749    
    267700   334.59216     -218748.56      0             -218257.81      405.13697    
    267800   332.78202     -218754.65      0             -218266.55      110.25869    
    267900   327.35464     -218748.57      0             -218268.44      327.77307    
    268000   331.97447     -218755.48      0             -218268.57      94.839534    
    268100   330.16915     -218753.24      0             -218268.97      397.33725    
    268200   330.30587     -218755.83      0             -218271.37     -576.04469    
    268300   327.86206     -218754.12      0             -218273.24     -459.21998    
    268400   329.05537     -218752.52      0             -218269.89     -609.23219    
    268500   329.31607     -218745.5       0             -218262.49     -1154.0774    
    268600   335.23844     -218752.31      0             -218260.61      218.43231    
    268700   328.60159     -218748.85      0             -218266.88      50.174009    
    268800   326.25917     -218749.83      0             -218271.3      -245.47224    
    268900   330.08425     -218753.96      0             -218269.82     -1115.0491    
    269000   328.92577     -218750.84      0             -218268.4      -1340.3516    
    269100   328.98768     -218750.32      0             -218267.79     -989.39468    
    269200   328.8805      -218748.2       0             -218265.83     -29.801372    
    269300   334.79416     -218753.51      0             -218262.46      177.98359    
    269400   330.84392     -218749.79      0             -218264.53     -311.48497    
    269500   328.39298     -218753.54      0             -218271.88      8.6306817    
    269600   325.43733     -218750.58      0             -218273.25     -1292.0964    
    269700   328.89443     -218751.53      0             -218269.14      248.07096    
    269800   334.46808     -218749.26      0             -218258.69      707.51372    
    269900   333.7572      -218748.78      0             -218259.25      360.42417    
    270000   330.97244     -218750.29      0             -218264.85     -171.93285    
    270100   329.99104     -218754.38      0             -218270.38     -1664.8791    
    270200   329.80547     -218755.18      0             -218271.45     -582.37313    
    270300   331.5976      -218754.61      0             -218268.25     -129.54777    
    270400   332.30765     -218745.35      0             -218257.94      10.467106    
    270500   335.48412     -218750.09      0             -218258.03     -80.449644    
    270600   331.24421     -218750.15      0             -218264.31      1006.4537    
    270700   331.16202     -218753.03      0             -218267.31      808.43617    
    270800   327.9839      -218752.13      0             -218271.07      43.209763    
    270900   326.62398     -218753.51      0             -218274.45     -394.30809    
    271000   330.4177      -218758.73      0             -218274.1      -1021.8098    
    271100   332.3461      -218752.7       0             -218265.24     -487.16573    
    271200   331.56256     -218747.84      0             -218261.53     -1135.8213    
    271300   331.70769     -218751.23      0             -218264.71     -821.24728    
    271400   327.63591     -218753.01      0             -218272.46      829.00151    
    271500   332.571       -218762.33      0             -218274.55      629.66698    
    271600   328.81464     -218754.29      0             -218272.02      441.53073    
    271700   329.14778     -218751.52      0             -218268.75      625.54421    
    271800   328.32623     -218748.49      0             -218266.93     -330.11493    
    271900   328.77117     -218747.46      0             -218265.24     -61.07638     
    272000   331.6564      -218752.81      0             -218266.36     -47.908493    
    272100   331.11565     -218756.48      0             -218270.83     -495.47851    
    272200   327.73448     -218754.63      0             -218273.93      1857.2444    
    272300   328.40939     -218754.44      0             -218272.76      331.2425     
    272400   332.72945     -218752.2       0             -218264.18      788.40058    
    272500   334.42637     -218752.09      0             -218261.59     -680.90268    
    272600   335.46878     -218757.15      0             -218265.11     -1092.0702    
    272700   326.63499     -218748.47      0             -218269.39     -1091.7992    
    272800   329.5692      -218752.99      0             -218269.61     -802.96613    
    272900   326.92908     -218749.11      0             -218269.6      -94.078953    
    273000   332.17819     -218755.82      0             -218268.61      438.1635     
    273100   332.50271     -218750.64      0             -218262.95     -1283.007     
    273200   330.77596     -218743.61      0             -218258.45      188.92064    
    273300   332.2421      -218751.47      0             -218264.16      375.55224    
    273400   330.48442     -218756.76      0             -218272.03      8.7536066    
    273500   326.88664     -218751.49      0             -218272.04     -9.5622605    
    273600   329.51895     -218751.84      0             -218268.53     -819.98346    
    273700   331.37052     -218750.07      0             -218264.04      32.992633    
    273800   331.53872     -218744.97      0             -218258.7      -1601.0293    
    273900   334.78961     -218746.47      0             -218255.43     -213.91902    
    274000   329.04013     -218747.15      0             -218264.54     -966.00855    
    274100   329.99656     -218754.2       0             -218270.18     -1669.8579    
    274200   325.72878     -218749.83      0             -218272.08     -1201.9699    
    274300   327.58143     -218750.65      0             -218270.18     -1118.5713    
    274400   331.21241     -218747.83      0             -218262.04      144.00478    
    274500   332.66955     -218748.98      0             -218261.05      764.22027    
    274600   331.34032     -218755.15      0             -218269.17      861.29633    
    274700   330.18022     -218758.54      0             -218274.26     -356.83123    
    274800   332.3968      -218759.54      0             -218272.01      17.350504    
    274900   327.26309     -218747.01      0             -218267.01      5.3273939    
    275000   332.92121     -218751.55      0             -218263.25      418.45247    
    275100   332.40097     -218752.56      0             -218265.02     -534.26931    
    275200   330.10582     -218758.53      0             -218274.36      446.13373    
    275300   325.98095     -218754.21      0             -218276.09     -15.502391    
    275400   325.88507     -218749.33      0             -218271.35     -673.01131    
    275500   331.98631     -218753         0             -218266.07     -1162.6896    
    275600   331.88417     -218752.33      0             -218265.55     -279.24609    
    275700   332.71618     -218755.27      0             -218267.27     -773.46015    
    275800   330.87102     -218753.32      0             -218268.03      280.0409     
    275900   330.58056     -218755.19      0             -218270.32     -49.370596    
    276000   328.79998     -218759.86      0             -218277.6      -176.99654    
    276100   328.75518     -218760.19      0             -218278         437.50026    
    276200   327.33159     -218750.6       0             -218270.49      337.11274    
    276300   332.52754     -218753.4       0             -218265.67      103.33755    
    276400   334.33245     -218757.38      0             -218267.01      1047.0154    
    276500   326.96539     -218749.37      0             -218269.81     -67.842759    
    276600   328.37359     -218754.5       0             -218272.87      394.07819    
    276700   326.70292     -218757.43      0             -218278.25     -468.93558    
    276800   326.99028     -218759.33      0             -218279.72     -670.31718    
    276900   329.49209     -218753.7       0             -218270.43     -520.19844    
    277000   326.05788     -218744.15      0             -218265.92     -363.67272    
    277100   331.31825     -218751.25      0             -218265.3      -663.69586    
    277200   332.83852     -218756.47      0             -218268.29     -931.72678    
    277300   326.37898     -218755.07      0             -218276.36      392.55164    
    277400   325.67914     -218755.71      0             -218278.03      1130.3294    
    277500   328.29521     -218750.71      0             -218269.19      1118.3923    
    277600   332.1647      -218751.16      0             -218263.97      257.62835    
    277700   329.22139     -218748.69      0             -218265.81     -491.66882    
    277800   328.99939     -218754.04      0             -218271.49     -1443.8938    
    277900   325.90099     -218753.44      0             -218275.44     -796.22674    
    278000   325.10193     -218749.27      0             -218272.44     -673.31616    
    278100   330.13914     -218745.98      0             -218261.76     -27.979391    
    278200   329.40944     -218745.4       0             -218262.25     -116.60906    
    278300   328.84813     -218748.61      0             -218266.29      192.99965    
    278400   330.18331     -218755.87      0             -218271.58     -369.50001    
    278500   328.15899     -218754.94      0             -218273.63     -1410.1212    
    278600   329.25004     -218753.52      0             -218270.61     -1463.6667    
    278700   331.28139     -218747.8       0             -218261.91     -248.81437    
    278800   335.81989     -218753.05      0             -218260.49      407.74478    
    278900   329.15464     -218750.55      0             -218267.78      267.00508    
    279000   325.53374     -218749.74      0             -218272.28      299.99949    
    279100   327.53996     -218752.88      0             -218272.47     -19.592478    
    279200   331.93969     -218756.54      0             -218269.68     -1365.92      
    279300   328.82633     -218740.95      0             -218258.65     -1223.1791    
    279400   332.23689     -218744.45      0             -218257.16     -352.42576    
    279500   328.50321     -218745.41      0             -218263.59     -928.02893    
    279600   329.41605     -218750.81      0             -218267.65     -43.550079    
    279700   327.21211     -218750.45      0             -218270.53      1230.1646    
    279800   331.69805     -218758.22      0             -218271.72      991.6773     
    279900   333.07559     -218757.12      0             -218268.59     -597.21653    
    280000   333.6855      -218749.92      0             -218260.5      -203.77797    
    280100   330.87528     -218746.86      0             -218261.56      96.07291     
    280200   329.53985     -218752.13      0             -218268.78     -47.299269    
    280300   329.16687     -218755.44      0             -218272.65     -542.62328    
    280400   327.93714     -218752.6       0             -218271.61      889.9256     
    280500   328.56585     -218750.18      0             -218268.26      255.96889    
    280600   327.67532     -218746.35      0             -218265.74     -405.30705    
    280700   332.90927     -218750.98      0             -218262.7      -529.36345    
    280800   335.94503     -218748.39      0             -218255.66     -1106.7995    
    280900   332.28206     -218745.52      0             -218258.16     -859.18816    
    281000   331.41606     -218754.08      0             -218267.99     -246.92052    
    281100   329.56861     -218754.65      0             -218271.27     -1112.1489    
    281200   330.48388     -218756.51      0             -218271.78      170.83951    
    281300   331.81371     -218754.53      0             -218267.85      471.6465     
    281400   332.40916     -218749.97      0             -218262.42      1225.6195    
    281500   335.8522      -218752.22      0             -218259.62      599.57387    
    281600   329.16961     -218748.78      0             -218265.98      38.543978    
    281700   330.1184      -218757.02      0             -218272.83     -1100.8647    
    281800   327.20391     -218752.88      0             -218272.96     -1663.8257    
    281900   329.34484     -218750.55      0             -218267.5      -1218.6755    
    282000   331.0584      -218746.65      0             -218261.08     -893.17701    
    282100   330.36685     -218746.36      0             -218261.81      216.34428    
    282200   331.35266     -218751.64      0             -218265.64     -1071.7445    
    282300   328.68464     -218749.99      0             -218267.9      -727.21223    
    282400   328.68969     -218752.07      0             -218269.98     -328.12692    
    282500   329.30469     -218753.13      0             -218270.13     -663.61792    
    282600   329.1707      -218753.67      0             -218270.87     -8.2993362    
    282700   332.13851     -218757.6       0             -218270.44      177.20621    
    282800   332.4933      -218755.91      0             -218268.23      202.92742    
    282900   336.42203     -218757.44      0             -218264.01      304.96162    
    283000   330.19329     -218746.61      0             -218262.31      137.30068    
    283100   331.10604     -218754.7       0             -218269.06     -657.53075    
    283200   330.49088     -218759.11      0             -218274.38     -1178.6817    
    283300   328.06142     -218754.01      0             -218272.84     -1450.8406    
    283400   329.99728     -218749.85      0             -218265.84     -1307.5123    
    283500   334.82805     -218754.53      0             -218263.43     -1217.382     
    283600   328.21407     -218746.81      0             -218265.41      577.3877     
    283700   330.9454      -218753.62      0             -218268.22     -84.312241    
    283800   324.34881     -218749.96      0             -218274.23     -783.01756    
    283900   325.34597     -218754.16      0             -218276.97     -584.32367    
    284000   330.44397     -218753.01      0             -218268.34      996.83122    
    284100   331.4646      -218749.33      0             -218263.16      603.844      
    284200   331.74428     -218751.47      0             -218264.9       517.62663    
    284300   331.7302      -218757         0             -218270.45     -495.86587    
    284400   326.50623     -218754.68      0             -218275.79     -1074.482     
    284500   326.60917     -218752.92      0             -218273.88     -718.44399    
    284600   330.12696     -218745.94      0             -218261.74     -1720.1004    
    284700   330.76305     -218747.12      0             -218261.98     -1199.1001    
    284800   330.89671     -218753.3       0             -218267.96     -2230.952     
    284900   330.29951     -218756.52      0             -218272.06      448.01925    
    285000   328.09621     -218752.51      0             -218271.28      647.24793    
    285100   332.93083     -218750.06      0             -218261.75      27.921099    
    285200   330.12887     -218742.09      0             -218257.89     -126.10231    
    285300   331.93833     -218749.67      0             -218262.81      195.07289    
    285400   330.41106     -218752.83      0             -218268.21      1003.2664    
    285500   331.06783     -218756.58      0             -218271         1399.9191    
    285600   327.89943     -218753.73      0             -218272.79     -7.7204967    
    285700   330.08934     -218750.87      0             -218266.72     -106.03628    
    285800   332.52003     -218745.97      0             -218258.25     -654.17727    
    285900   333.71912     -218750.31      0             -218260.83     -1115.5712    
    286000   330.17284     -218751.91      0             -218267.64     -675.81332    
    286100   328.73444     -218752.38      0             -218270.22     -971.73785    
    286200   334.25432     -218759.51      0             -218269.26     -1155.241     
    286300   329.80703     -218751.39      0             -218267.66     -461.41553    
    286400   332.43259     -218749.18      0             -218261.6      -1390.495     
    286500   335.55118     -218747.88      0             -218255.72     -614.83239    
    286600   333.35646     -218750.08      0             -218261.14      194.02122    
    286700   330.38872     -218754.17      0             -218269.58      555.99803    
    286800   329.48584     -218754.01      0             -218270.74     -732.21317    
    286900   328.80663     -218750.61      0             -218268.34      192.99264    
    287000   330.19581     -218749.64      0             -218265.34      696.33493    
    287100   333.90136     -218750.5       0             -218260.76      256.32126    
    287200   329.03948     -218741.72      0             -218259.11      29.400385    
    287300   330.35837     -218751.88      0             -218267.34     -217.71908    
    287400   326.64734     -218752.5       0             -218273.4       251.62277    
    287500   333.02088     -218760.08      0             -218271.63     -302.89827    
    287600   333.00081     -218755.04      0             -218266.62     -190.58085    
    287700   331.51128     -218747.41      0             -218261.18     -109.22617    
    287800   333.62338     -218750.76      0             -218261.43     -1594.9131    
    287900   328.0676      -218753.4       0             -218272.22      107.31192    
    288000   325.6722      -218753.18      0             -218275.51     -480.41845    
    288100   325.70871     -218751.18      0             -218273.46     -676.14675    
    288200   331.12628     -218751.3       0             -218265.63      1178.1177    
    288300   329.31913     -218746.05      0             -218263.03     -338.25965    
    288400   330.36892     -218749.84      0             -218265.28     -155.96777    
    288500   330.11948     -218752.12      0             -218267.92     -708.12109    
    288600   329.70411     -218752.29      0             -218268.71     -353.18779    
    288700   329.95297     -218752.84      0             -218268.9      -505.53685    
    288800   331.27806     -218754.95      0             -218269.06     -700.38298    
    288900   328.9516      -218750.06      0             -218267.59     -1914.3898    
    289000   334.01666     -218753.31      0             -218263.41     -986.28834    
    289100   331.82337     -218749.81      0             -218263.12     -574.85672    
    289200   326.88766     -218749.39      0             -218269.94     -21.125402    
    289300   326.34678     -218753.64      0             -218274.98      392.1534     
    289400   328.45071     -218754.21      0             -218272.47     -207.828      
    289500   328.38286     -218750.4       0             -218268.76      82.539391    
    289600   334.56254     -218757.21      0             -218266.5       123.89435    
    289700   332.18188     -218754.78      0             -218267.56      204.76341    
    289800   331.19833     -218755.71      0             -218269.94     -226.32532    
    289900   328.69493     -218755.1       0             -218273        -805.89246    
    290000   327.702       -218754.18      0             -218273.53     -1144.0106    
    290100   328.20066     -218751.28      0             -218269.91     -892.25242    
    290200   331.22106     -218748.09      0             -218262.28     -96.021176    
    290300   329.96055     -218745.69      0             -218261.74     -334.34897    
    290400   327.78586     -218749.69      0             -218268.92     -1233.9367    
    290500   330.85835     -218757.9       0             -218272.63     -1125.8186    
    290600   330.66311     -218756.37      0             -218271.39     -1095.7767    
    290700   329.56629     -218751.51      0             -218268.13     -585.07746    
    290800   332.91005     -218752.72      0             -218264.44     -1092.6683    
    290900   334.24968     -218750.89      0             -218260.64     -417.44212    
    291000   333.81337     -218747.24      0             -218257.63      624.2458     
    291100   329.69154     -218748.45      0             -218264.89      599.38724    
    291200   327.085       -218751.89      0             -218272.15     -816.83556    
    291300   328.33259     -218754.46      0             -218272.89     -777.90792    
    291400   327.60994     -218750.9       0             -218270.39     -136.96129    
    291500   332.11836     -218748.51      0             -218261.38     -481.51215    
    291600   331.05895     -218746.25      0             -218260.68     -670.20471    
    291700   333.42026     -218753.55      0             -218264.52      13.293877    
    291800   331.87373     -218754.81      0             -218268.05     -1164.681     
    291900   327.65407     -218749.95      0             -218269.37      385.70606    
    292000   328.06752     -218750.63      0             -218269.45      343.17826    
    292100   329.48432     -218752.72      0             -218269.46      29.472812    
    292200   328.45012     -218750.49      0             -218268.74      670.49805    
    292300   334.15934     -218756.53      0             -218266.41      190.35447    
    292400   331.8478      -218752.96      0             -218266.23     -455.53804    
    292500   328.41915     -218750.93      0             -218269.24      709.53728    
    292600   331.38584     -218760.42      0             -218274.37     -12.010429    
    292700   328.19588     -218757.98      0             -218276.61     -96.858683    
    292800   330.38115     -218755.19      0             -218270.62      79.155831    
    292900   329.66759     -218747.04      0             -218263.51     -1079.4823    
    293000   334.50988     -218754.9       0             -218264.27     -166.63078    
    293100   328.81452     -218752.04      0             -218269.76     -458.1632     
    293200   328.23266     -218757.94      0             -218276.52     -1525.6131    
    293300   329.09544     -218758.45      0             -218275.76     -1512.1573    
    293400   331.18247     -218748.27      0             -218262.52     -1400.6355    
    293500   333.27855     -218751.1       0             -218262.28     -192.13911    
    293600   329.21291     -218750.2       0             -218267.34     -541.25996    
    293700   328.84506     -218754.95      0             -218272.63      403.66978    
    293800   328.37038     -218754.89      0             -218273.26      221.4991     
    293900   330.60578     -218750.63      0             -218265.73     -454.37891    
    294000   330.05826     -218743.82      0             -218259.72     -265.3894     
    294100   334.80727     -218752.95      0             -218261.88      220.82705    
    294200   330.48966     -218750.85      0             -218266.11      855.66048    
    294300   327.87952     -218749.45      0             -218268.54      18.206011    
    294400   330.99409     -218754.52      0             -218269.05     -1120.7301    
    294500   329.2234      -218750.92      0             -218268.04     -518.93319    
    294600   329.01858     -218745.36      0             -218262.79     -1029.0538    
    294700   332.5737      -218745.37      0             -218257.58     -184.14711    
    294800   330.83146     -218749.54      0             -218264.31     -160.77985    
    294900   331.15332     -218755.52      0             -218269.82      14.703443    
    295000   328.30677     -218751.72      0             -218270.19     -603.78253    
    295100   327.18358     -218748.61      0             -218268.72     -59.373093    
    295200   333.05219     -218754.77      0             -218266.28      655.37135    
    295300   336.23949     -218752.83      0             -218259.67     -348.01079    
    295400   332.55624     -218748.53      0             -218260.76      387.39055    
    295500   327.34562     -218748.91      0             -218268.79     -386.41331    
    295600   329.82245     -218755.41      0             -218271.65     -261.63335    
    295700   330.53127     -218756.25      0             -218271.45     -435.05615    
    295800   331.33065     -218755.52      0             -218269.55      162.85887    
    295900   334.85587     -218751         0             -218259.86     -323.82975    
    296000   334.10619     -218746.19      0             -218256.16      186.92895    
    296100   335.17525     -218754.56      0             -218262.95      326.01111    
    296200   332.98289     -218757.06      0             -218268.66      82.768495    
    296300   328.97639     -218753.9       0             -218271.38     -525.15767    
    296400   328.68459     -218753.47      0             -218271.39     -3.6800133    
    296500   334.62655     -218756.47      0             -218265.67      76.911817    
    296600   332.18184     -218745.93      0             -218258.71     -448.67807    
    296700   330.64016     -218745.98      0             -218261.02     -1471.5455    
    296800   328.43993     -218749.92      0             -218268.19     -299.7026     
    296900   330.6243      -218754.61      0             -218269.68     -55.320791    
    297000   326.17707     -218748.18      0             -218269.77     -372.48408    
    297100   330.11129     -218752.96      0             -218268.78     -1279.113     
    297200   331.56522     -218753.32      0             -218267.01     -132.19191    
    297300   332.34239     -218751.01      0             -218263.56     -331.96221    
    297400   331.88078     -218749.93      0             -218263.16     -382.47901    
    297500   328.9829      -218751.45      0             -218268.93      160.47716    
    297600   327.43542     -218754.93      0             -218274.68      1047.5082    
    297700   326.24368     -218753.32      0             -218274.82      673.89822    
    297800   331.4491      -218751.57      0             -218265.42      526.23408    
    297900   333.19294     -218748.96      0             -218260.26      1182.6581    
    298000   332.02426     -218751.79      0             -218264.81      49.099527    
    298100   328.63928     -218752.68      0             -218270.66     -211.20993    
    298200   330.44477     -218756.01      0             -218271.35     -172.90159    
    298300   330.97736     -218753.99      0             -218268.55     -118.01382    
    298400   334.70514     -218749.26      0             -218258.35     -271.35196    
    298500   332.89324     -218746.14      0             -218257.88     -158.31987    
    298600   333.80465     -218753.83      0             -218264.24     -1225.9522    
    298700   331.35281     -218752.67      0             -218266.67     -1261.5968    
    298800   331.98772     -218756.12      0             -218269.19     -496.79978    
    298900   326.82197     -218752.86      0             -218273.51      685.80463    
    299000   326.67208     -218755.14      0             -218276.01     -480.13967    
    299100   329.5132      -218755.35      0             -218272.05     -904.28795    
    299200   329.42722     -218747.62      0             -218264.45     -920.11623    
    299300   332.263       -218750.62      0             -218263.28      273.51035    
    299400   328.95748     -218751.37      0             -218268.89     -205.45735    
    299500   330.89156     -218761.22      0             -218275.9      -1608.5077    
    299600   329.35146     -218759.92      0             -218276.85      479.85266    
    299700   326.46924     -218752.75      0             -218273.91     -119.3813     
    299800   330.88244     -218755.13      0             -218269.82      56.620994    
    299900   330.27345     -218749.8       0             -218265.38      113.26607    
    300000   330.87489     -218748.41      0             -218263.11     -945.97008    
    300100   333.13299     -218755.21      0             -218266.6      -372.76104    
    300200   327.38477     -218755.3       0             -218275.12     -984.47638    
    300300   325.03417     -218753.11      0             -218276.38     -133.21178    
    300400   328.52011     -218751.23      0             -218269.39     -302.75002    
    300500   329.14733     -218748.47      0             -218265.7      -1845.8182    
    300600   328.79523     -218748.98      0             -218266.73     -938.95339    
    300700   330.98921     -218754.74      0             -218269.27     -450.74147    
    300800   332.09239     -218761.62      0             -218274.54     -276.76747    
    300900   327.24353     -218760.75      0             -218280.77     -63.72736     
    301000   326.89633     -218759.58      0             -218280.12      879.1767     
    301100   329.26883     -218752.17      0             -218269.22     -573.08679    
    301200   333.46345     -218754.3       0             -218265.21     -579.25419    
    301300   326.65358     -218744.16      0             -218265.05     -459.91322    
    301400   330.71418     -218752.75      0             -218267.69     -328.13327    
    301500   328.34278     -218756         0             -218274.42      46.543338    
    301600   326.05526     -218755.87      0             -218277.64     -525.5676     
    301700   330.54464     -218753.86      0             -218269.04     -1496.7579    
    301800   331.32244     -218749.17      0             -218263.22     -693.60968    
    301900   334.20439     -218756.03      0             -218265.84     -17.278747    
    302000   330.31385     -218756.38      0             -218271.9      -968.32152    
    302100   328.05409     -218756.19      0             -218275.03     -891.41864    
    302200   324.7503      -218748.75      0             -218272.44     -556.60659    
    302300   331.73064     -218748.19      0             -218261.63     -274.93885    
    302400   332.21351     -218748.24      0             -218260.98      113.00108    
    302500   333.44784     -218755.69      0             -218266.62      638.25359    
    302600   330.7548      -218758.43      0             -218273.3      -939.04057    
    302700   328.58179     -218757.01      0             -218275.08     -910.9497     
    302800   330.8163      -218755.86      0             -218270.65     -573.89903    
    302900   333.17064     -218750.59      0             -218261.92      681.028      
    303000   333.91954     -218752.5       0             -218262.74      181.52538    
    303100   330.46846     -218750.91      0             -218266.21     -254.63704    
    303200   329.01469     -218751.99      0             -218269.42     -959.32655    
    303300   328.28921     -218755.08      0             -218273.57     -1126.4194    
    303400   328.2363      -218758.94      0             -218277.51     -1137.0666    
    303500   327.27616     -218758.38      0             -218278.36     -2198.549     
    303600   333.13628     -218759.51      0             -218270.89      463.23966    
    303700   332.10132     -218752.73      0             -218265.63     -419.82851    
    303800   331.78236     -218752.51      0             -218265.88      382.63033    
    303900   328.65522     -218754.29      0             -218272.25     -178.45038    
    304000   324.79837     -218755.75      0             -218279.36      486.66276    
    304100   326.93227     -218758.2       0             -218278.68      250.77715    
    304200   328.21239     -218756.72      0             -218275.33     -612.56896    
    304300   331.13977     -218756.15      0             -218270.46     -390.14345    
    304400   330.35889     -218751.64      0             -218267.09     -734.66991    
    304500   327.9389      -218747.79      0             -218266.79     -90.096975    
    304600   328.53862     -218754.47      0             -218272.6       170.49587    
    304700   327.61856     -218760.21      0             -218279.69     -832.04318    
    304800   331.03118     -218763.2       0             -218277.67     -91.358033    
    304900   331.70053     -218756.12      0             -218269.61     -968.44921    
    305000   332.21977     -218754.93      0             -218267.66     -1658.1745    
    305100   324.93637     -218745.78      0             -218269.2      -203.76574    
    305200   329.06113     -218753.31      0             -218270.67      155.02383    
    305300   327.17963     -218756.77      0             -218276.89      157.85516    
    305400   326.10405     -218760.03      0             -218281.72      251.81383    
    305500   326.48147     -218754.29      0             -218275.43     -100.96721    
    305600   328.52326     -218750.32      0             -218268.47     -747.21       
    305700   332.24337     -218754.98      0             -218267.67     -251.04453    
    305800   329.94354     -218753.21      0             -218269.27     -88.82047     
    305900   328.33403     -218757.03      0             -218275.46     -150.20189    
    306000   322.54831     -218754.08      0             -218281        -754.97335    
    306100   331.25033     -218760.74      0             -218274.89     -550.64796    
    306200   332.55897     -218755.08      0             -218267.31     -923.3026     
    306300   329.16282     -218749.38      0             -218266.59     -1230.0661    
    306400   328.34603     -218751.15      0             -218269.56     -517.55181    
    306500   331.25132     -218760.95      0             -218275.1      -1069.4763    
    306600   329.06166     -218761.41      0             -218278.77     -804.17257    
    306700   331.8886      -218758.55      0             -218271.77      497.08239    
    306800   335.63877     -218756.8       0             -218264.51     -100.20277    
    306900   329.89815     -218751.37      0             -218267.5       597.0445     
    307000   328.35688     -218754.17      0             -218272.57      192.78049    
    307100   329.9391      -218759.99      0             -218276.07      619.87379    
    307200   326.93909     -218756.92      0             -218277.39     -25.005219    
    307300   329.85786     -218754.36      0             -218270.55     -245.10583    
    307400   332.76057     -218752.04      0             -218263.98     -525.44606    
    307500   330.61953     -218749.93      0             -218265.01     -136.9225     
    307600   333.86845     -218761.79      0             -218272.1      -950.09836    
    307700   329.55999     -218759.54      0             -218276.17     -1415.8108    
    307800   328.75809     -218755.9       0             -218273.7      -1285.5392    
    307900   333.04701     -218758.52      0             -218270.04     -386.30154    
    308000   331.42628     -218754.02      0             -218267.92      120.693      
    308100   330.77387     -218754.39      0             -218269.24     -237.71118    
    308200   331.82448     -218756.54      0             -218269.84     -91.105917    
    308300   327.72186     -218751.48      0             -218270.8      -915.44462    
    308400   325.91126     -218748.24      0             -218270.22      382.17804    
    308500   327.58394     -218747.55      0             -218267.08      334.72701    
    308600   334.26644     -218751.68      0             -218261.4      -138.75685    
    308700   330.16296     -218748.36      0             -218264.1      -748.79607    
    308800   329.27451     -218756.42      0             -218273.47     -524.84387    
    308900   329.13368     -218758.21      0             -218275.46      319.49645    
    309000   331.77059     -218759.56      0             -218272.95     -1093.5212    
    309100   334.53106     -218756.55      0             -218265.88     -615.5433     
    309200   336.67035     -218754.72      0             -218260.92     -568.84084    
    309300   326.84103     -218743.64      0             -218264.26     -1270.1906    
    309400   332.86918     -218755.84      0             -218267.61     -703.72126    
    309500   331.18458     -218756.65      0             -218270.9      -184.19499    
    309600   325.94222     -218751.73      0             -218273.67     -179.33633    
    309700   327.27632     -218754.86      0             -218274.84      1193.9738    
    309800   330.22792     -218755.17      0             -218270.82     -438.86832    
    309900   330.95418     -218749.64      0             -218264.22      453.19316    
    310000   332.90171     -218751.84      0             -218263.57      38.334535    
    310100   329.40689     -218755.48      0             -218272.34      629.1382     
    310200   327.65504     -218755.67      0             -218275.1       1134.6733    
    310300   327.24274     -218752.48      0             -218272.51     -293.11037    
    310400   328.12532     -218750.37      0             -218269.11     -187.69784    
    310500   331.68423     -218752.56      0             -218266.08     -1240.5032    
    310600   331.37613     -218747.53      0             -218261.49     -813.13798    
    310700   337.46387     -218753.87      0             -218258.91     -312.45437    
    310800   333.31053     -218755.9       0             -218267.03     -2312.0333    
    310900   329.09281     -218755.12      0             -218272.43     -930.27633    
    311000   328.25817     -218753.76      0             -218272.3      -1633.6584    
    311100   333.46625     -218757         0             -218267.9       32.531476    
    311200   332.87682     -218748.52      0             -218260.28      35.692995    
    311300   331.3355      -218744.35      0             -218258.38      169.44858    
    311400   328.86147     -218752.57      0             -218270.23     -543.42181    
    311500   325.40628     -218751.08      0             -218273.8      -1570.5878    
    311600   327.69635     -218753.15      0             -218272.51     -401.5973     
    311700   331.81578     -218754.9       0             -218268.22     -530.84997    
    311800   335.13131     -218756.64      0             -218265.1      -688.76191    
    311900   329.88569     -218751.12      0             -218267.28     -334.53145    
    312000   328.98195     -218757.93      0             -218275.41     -683.78621    
    312100   327.8617      -218758.76      0             -218277.88     -1216.3037    
    312200   328.50449     -218754.79      0             -218272.97     -337.73904    
    312300   332.25873     -218752.1       0             -218264.77      291.99837    
    312400   334.32181     -218754.01      0             -218263.66      236.37655    
    312500   326.26701     -218746.3       0             -218267.76     -601.36576    
    312600   328.70751     -218754.59      0             -218272.47     -1005.8982    
    312700   329.44148     -218757.78      0             -218274.58     -89.061091    
    312800   330.37363     -218757.53      0             -218272.97     -925.74222    
    312900   329.44739     -218747.14      0             -218263.94      107.56066    
    313000   332.7268      -218750         0             -218261.99      76.239376    
    313100   329.666       -218752.14      0             -218268.61     -753.90909    
    313200   326.6157      -218752.81      0             -218273.76     -721.04834    
    313300   325.5849      -218750.01      0             -218272.47      419.98457    
    313400   330.90299     -218754.3       0             -218268.96     -687.48862    
    313500   330.47015     -218751.99      0             -218267.29      32.83959     
    313600   333.17387     -218754.25      0             -218265.58     -842.45511    
    313700   330.97591     -218751.76      0             -218266.31      377.80569    
    313800   326.81041     -218751.19      0             -218271.85     -1022.7175    
    313900   329.37111     -218758.92      0             -218275.82     -1222.6199    
    314000   326.99633     -218754.07      0             -218274.46     -783.86171    
    314100   331.84408     -218751.73      0             -218265        -797.53441    
    314200   333.09038     -218751.16      0             -218262.61      528.51566    
    314300   329.69676     -218749.94      0             -218266.37     -51.484251    
    314400   328.75638     -218752.42      0             -218270.23     -677.89304    
    314500   330.78151     -218756.69      0             -218271.53      127.76571    
    314600   329.34668     -218754.38      0             -218271.32     -341.20931    
    314700   328.48489     -218751.64      0             -218269.85     -397.13011    
    314800   334.52347     -218756.23      0             -218265.58     -698.69289    
    314900   333.49152     -218746.41      0             -218257.27     -686.47182    
    315000   333.00816     -218748.1       0             -218259.67     -390.66086    
    315100   332.33393     -218755.73      0             -218268.29     -581.37129    
    315200   332.64291     -218758.22      0             -218270.32     -620.40775    
    315300   329.35813     -218754.06      0             -218270.99     -1355.1499    
    315400   328.4787      -218753.78      0             -218271.99      613.54693    
    315500   330.52432     -218756.25      0             -218271.46      255.13319    
    315600   331.05234     -218753.89      0             -218268.33      165.21758    
    315700   330.62945     -218749.62      0             -218264.68     -38.953456    
    315800   329.9854      -218746.35      0             -218262.35      111.0756     
    315900   333.02481     -218758.15      0             -218269.7       192.48654    
    316000   326.74217     -218755.8       0             -218276.56     -176.5981     
    316100   327.23707     -218754.56      0             -218274.6      -527.30753    
    316200   330.60296     -218753.69      0             -218268.79     -594.4886     
    316300   332.56313     -218752.91      0             -218265.14     -1318.7459    
    316400   327.7898      -218747.24      0             -218266.46     -1302.0198    
    316500   331.65016     -218758.51      0             -218272.08     -102.35054    
    316600   326.45519     -218761.85      0             -218283.03      509.74047    
    316700   326.18862     -218756.44      0             -218278.01     -769.42694    
    316800   334.02342     -218760.47      0             -218270.55     -973.14274    
    316900   332.77988     -218755.15      0             -218267.05     -1426.5567    
    317000   330.55374     -218751.58      0             -218266.75     -75.002328    
    317100   329.73384     -218754.91      0             -218271.28      296.43095    
    317200   323.76707     -218753.6       0             -218278.73      231.23245    
    317300   328.20445     -218759.12      0             -218277.73      585.24755    
    317400   330.59503     -218755.12      0             -218270.23     -474.60358    
    317500   330.58899     -218751.7       0             -218266.82     -801.61357    
    317600   331.64958     -218754.15      0             -218267.72     -787.84569    
    317700   328.43099     -218753.56      0             -218271.85      169.4796     
    317800   328.59534     -218757.55      0             -218275.59     -633.88182    
    317900   322.43614     -218750.37      0             -218277.45     -650.20585    
    318000   330.62078     -218757.13      0             -218272.21     -588.50693    
    318100   329.14372     -218747.78      0             -218265.02     -205.17605    
    318200   330.27712     -218749.53      0             -218265.11      75.582522    
    318300   329.6519      -218754.26      0             -218270.75     -1054.7741    
    318400   325.1728      -218755.62      0             -218278.68     -47.770521    
    318500   331.14565     -218763.14      0             -218277.45     -635.20398    
    318600   331.10185     -218759.66      0             -218274.02      289.17371    
    318700   330.53706     -218756.35      0             -218271.54      409.45006    
    318800   331.56131     -218753.78      0             -218267.48      942.09684    
    318900   329.37931     -218746.83      0             -218263.73     -1212.7867    
    319000   334.748       -218748.76      0             -218257.78     -417.09907    
    319100   335.22193     -218751.44      0             -218259.76     -321.08758    
    319200   328.72619     -218751.42      0             -218269.27     -314.78105    
    319300   327.64275     -218753.64      0             -218273.08     -632.50017    
    319400   329.47845     -218756.53      0             -218273.28     -585.58793    
    319500   330.27886     -218754.87      0             -218270.44     -723.31535    
    319600   330.85212     -218747.72      0             -218262.45     -606.26268    
    319700   334.12432     -218749.74      0             -218259.68     -816.06913    
    319800   330.19909     -218752.1       0             -218267.8      -579.27659    
    319900   331.01022     -218758.56      0             -218273.06     -186.04886    
    320000   327.0324      -218752.93      0             -218273.27     -363.10858    
    320100   328.62598     -218751.75      0             -218269.75     -1152.3597    
    320200   329.94575     -218748.41      0             -218264.47      8.6978699    
    320300   334.17716     -218750.09      0             -218259.95      398.76678    
    320400   332.25422     -218749.12      0             -218261.79      664.46553    
    320500   329.30034     -218754.62      0             -218271.63      5.3226621    
    320600   332.49047     -218762.74      0             -218275.07     -401.88915    
    320700   327.30503     -218754.85      0             -218274.79     -1150.7591    
    320800   330.32411     -218751.27      0             -218266.78     -290.11       
    320900   335.40968     -218754.43      0             -218262.47     -707.54491    
    321000   332.66366     -218753.92      0             -218265.99      419.36706    
    321100   328.46372     -218752.58      0             -218270.81      254.93186    
    321200   329.85222     -218755.49      0             -218271.69      105.84853    
    321300   327.4165      -218750.82      0             -218270.6       222.49752    
    321400   333.74913     -218758.09      0             -218268.58     -44.799985    
    321500   332.11997     -218750.34      0             -218263.22     -1666.8657    
    321600   332.30074     -218749.97      0             -218262.58     -1397.4589    
    321700   329.46248     -218753.07      0             -218269.84     -1324.5625    
    321800   326.53946     -218753.68      0             -218274.74     -1554.8595    
    321900   328.36345     -218754.67      0             -218273.05     -427.11801    
    322000   330.26229     -218752.11      0             -218267.71     -496.77714    
    322100   330.21981     -218745.23      0             -218260.89     -706.57484    
    322200   334.81295     -218746.34      0             -218255.27      107.97559    
    322300   336.55368     -218751.22      0             -218257.59     -649.78516    
    322400   330.95528     -218753.93      0             -218268.51     -449.93853    
    322500   327.89851     -218754.71      0             -218273.78     -728.5383     
    322600   327.65901     -218755.33      0             -218274.75     -578.43973    
    322700   333.68938     -218761.15      0             -218271.72      544.65335    
    322800   333.18523     -218753.85      0             -218265.16      33.070061    
    322900   333.98627     -218750.86      0             -218261        -916.84974    
    323000   330.46766     -218753.65      0             -218268.95     -61.39059     
    323100   328.25758     -218756.23      0             -218274.77     -815.25961    
    323200   330.47548     -218758.25      0             -218273.54     -546.09142    
    323300   333.334       -218757.81      0             -218268.9       913.18192    
    323400   332.29573     -218751.82      0             -218264.43      54.717702    
    323500   335.46171     -218756.99      0             -218264.96      167.98011    
    323600   327.07582     -218754.72      0             -218275         697.77256    
    323700   326.99431     -218757.8       0             -218278.19      304.77019    
    323800   330.75946     -218759.79      0             -218274.66      161.14087    
    323900   332.48059     -218754.89      0             -218267.24     -232.19134    
    324000   333.7729      -218755.91      0             -218266.36      1200.9947    
    324100   328.26018     -218750.88      0             -218269.42     -93.489217    
    324200   330.38538     -218756.44      0             -218271.86     -452.4442     
    324300   329.82096     -218756.58      0             -218272.83     -25.922647    
    324400   327.16688     -218751.36      0             -218271.5      -138.41743    
    324500   334.21912     -218752.35      0             -218262.15      263.62784    
    324600   332.34426     -218749.32      0             -218261.87      1225.0505    
    324700   324.76292     -218745.62      0             -218269.28      107.48377    
    324800   326.87367     -218753.3       0             -218273.87      378.45916    
    324900   330.54102     -218758.41      0             -218273.6      -646.06477    
    325000   330.61244     -218753.34      0             -218268.42     -157.67845    
    325100   332.84263     -218748.63      0             -218260.44      391.28559    
    325200   332.12202     -218750.16      0             -218263.04      364.1544     
    325300   329.37125     -218751.42      0             -218268.33      393.47504    
    325400   330.49923     -218756.51      0             -218271.76      180.02616    
    325500   325.76356     -218752.1       0             -218274.29     -382.81432    
    325600   326.45243     -218752.06      0             -218273.25     -173.21768    
    325700   331.03763     -218749.59      0             -218264.06     -1270.6987    
    325800   331.09596     -218746.75      0             -218261.13     -323.23305    
    325900   332.7654      -218754.76      0             -218266.69     -989.43112    
    326000   329.85713     -218757.32      0             -218273.51     -806.83003    
    326100   330.88788     -218759.74      0             -218274.43     -248.76398    
    326200   325.74825     -218749.89      0             -218272.11      393.16294    
    326300   332.1125      -218752.8       0             -218265.68     -675.56449    
    326400   334.82212     -218752.97      0             -218261.88      343.58901    
    326500   328.8948      -218752.41      0             -218270.02     -908.38215    
    326600   327.02564     -218756.98      0             -218277.33      48.172215    
    326700   328.62259     -218758.44      0             -218276.44     -671.66149    
    326800   332.45757     -218756.32      0             -218268.7       8.9573553    
    326900   331.2123      -218751.41      0             -218265.61     -314.17789    
    327000   330.84981     -218751.91      0             -218266.65     -667.6164     
    327100   326.64594     -218752.83      0             -218273.74     -170.17522    
    327200   326.04924     -218759.95      0             -218281.73     -204.42885    
    327300   322.75932     -218759.93      0             -218286.54     -727.08512    
    327400   327.6733      -218757.68      0             -218277.07      484.71477    
    327500   330.00671     -218753.13      0             -218269.11      793.90121    
    327600   332.24958     -218754.08      0             -218266.76     -137.61142    
    327700   326.31289     -218746.62      0             -218268.01      1017.1736    
    327800   327.87398     -218752.98      0             -218272.08     -260.06095    
    327900   324.12566     -218752.36      0             -218276.96     -383.08186    
    328000   329.0174      -218761.61      0             -218279.03      334.65239    
    328100   332.2883      -218758.79      0             -218271.42      408.6594     
    328200   331.89404     -218752.02      0             -218265.23     -73.518432    
    328300   329.71079     -218749.35      0             -218265.76      58.826285    
    328400   326.09004     -218750.47      0             -218272.19     -188.56521    
    328500   328.08049     -218758.36      0             -218277.16     -747.24067    
    328600   325.24356     -218752.92      0             -218275.88      412.20899    
    328700   329.50278     -218756.23      0             -218272.94      79.393128    
    328800   330.66845     -218756.93      0             -218271.94     -349.28541    
    328900   328.43911     -218751.86      0             -218270.13      857.87239    
    329000   331.20173     -218751.74      0             -218265.96      594.46265    
    329100   328.31488     -218747.02      0             -218265.48     -308.19357    
    329200   329.36812     -218754.6       0             -218271.51      61.757082    
    329300   330.78199     -218763.4       0             -218278.23      329.97819    
    329400   324.54485     -218754.04      0             -218278.02     -250.09247    
    329500   328.23812     -218751.87      0             -218270.44     -273.89903    
    329600   329.87175     -218750.41      0             -218266.59     -1221.5042    
    329700   329.11755     -218750.43      0             -218267.71     -1052.7111    
    329800   331.21748     -218756.17      0             -218270.37     -344.56906    
    329900   325.7682      -218752.43      0             -218274.62     -1167.96      
    330000   322.96305     -218754.73      0             -218281.03     -1452.9584    
    330100   324.13376     -218759.29      0             -218283.88      151.40887    
    330200   330.14982     -218757.25      0             -218273.01     -185.82863    
    330300   331.85318     -218754.93      0             -218268.19     -184.60752    
    330400   330.20653     -218751.48      0             -218267.16     -1193.7859    
    330500   326.32419     -218749.33      0             -218270.7      -918.11259    
    330600   330.31229     -218760.64      0             -218276.17     -388.17242    
    330700   326.85055     -218758.58      0             -218279.18      333.72323    
    330800   329.00047     -218755.58      0             -218273.03      114.90272    
    330900   332.7399      -218753.09      0             -218265.05     -443.92856    
    331000   333.61407     -218754.47      0             -218265.16     -1134.0318    
    331100   327.97483     -218751.95      0             -218270.91     -1197.6491    
    331200   325.67079     -218754.69      0             -218277.02     -142.92141    
    331300   326.36883     -218755.27      0             -218276.58     -241.62663    
    331400   328.3808      -218754.55      0             -218272.9       248.74215    
    331500   328.69233     -218754.48      0             -218272.38     -1402.5565    
    331600   330.63726     -218755.39      0             -218270.44      490.53716    
    331700   333.11936     -218753.55      0             -218264.96     -66.645069    
    331800   331.74602     -218748.84      0             -218262.26     -461.38756    
    331900   331.64248     -218754.61      0             -218268.18     -619.77724    
    332000   326.74627     -218755.41      0             -218276.17      872.27619    
    332100   326.12846     -218754.18      0             -218275.85      157.90169    
    332200   329.32103     -218753.1       0             -218270.08      230.72578    
    332300   333.40655     -218752.91      0             -218263.9      -443.18355    
    332400   332.11222     -218752.35      0             -218265.23      44.270281    
    332500   333.60388     -218756.33      0             -218267.03      468.82585    
    332600   332.48736     -218756.27      0             -218268.6      -324.14666    
    332700   332.68943     -218758.65      0             -218270.69      943.01044    
    332800   329.06891     -218757.83      0             -218275.18      605.55387    
    332900   328.5281      -218763.51      0             -218281.65      1030.5087    
    333000   327.93277     -218761.96      0             -218280.98      337.48145    
    333100   329.6812      -218753.84      0             -218270.29      852.40448    
    333200   331.71688     -218754.09      0             -218267.55     -24.303487    
    333300   327.70759     -218749.55      0             -218268.9       395.13444    
    333400   330.18486     -218757.77      0             -218273.48     -362.97321    
    333500   327.55251     -218759.57      0             -218279.14      323.13774    
    333600   328.85001     -218760.58      0             -218278.25     -1212.0444    
    333700   330.14748     -218751.06      0             -218266.82     -649.7691     
    333800   333.09812     -218753.91      0             -218265.35      528.06626    
    333900   329.87528     -218753.03      0             -218269.19      282.90539    
    334000   329.32594     -218758.53      0             -218275.5      -989.32203    
    334100   327.74223     -218756.72      0             -218276.02      43.197505    
    334200   329.36317     -218751.61      0             -218268.53     -260.85618    
    334300   334.42075     -218750.32      0             -218259.82     -864.87274    
    334400   332.7506      -218751.76      0             -218263.71     -332.00493    
    334500   330.15861     -218754.86      0             -218270.62      498.1423     
    334600   333.02641     -218763.01      0             -218274.56      207.11033    
    334700   327.4371      -218755.85      0             -218275.59     -40.607749    
    334800   332.54024     -218756.45      0             -218268.7      -879.75552    
    334900   333.34551     -218749.72      0             -218260.8      -428.07575    
    335000   331.30321     -218749.51      0             -218263.58      878.18118    
    335100   330.57156     -218755.17      0             -218270.31     -175.61646    
    335200   330.88172     -218757.76      0             -218272.45      92.532497    
    335300   331.66124     -218758.15      0             -218271.7       149.67       
    335400   329.8853      -218753.03      0             -218269.18     -1115.5389    
    335500   336.31968     -218757.05      0             -218263.77      528.48862    
    335600   334.30909     -218749         0             -218258.66     -402.13227    
    335700   330.08085     -218747.25      0             -218263.12     -294.24298    
    335800   328.83468     -218753.78      0             -218271.47      294.7958     
    335900   326.16101     -218750.85      0             -218272.46      265.09907    
    336000   329.48103     -218753.95      0             -218270.69      878.19933    
    336100   332.46838     -218753.48      0             -218265.85     -545.68292    
    336200   331.30059     -218746.17      0             -218260.25      1449.5398    
    336300   333.51694     -218749.29      0             -218260.11     -401.27739    
    336400   327.50649     -218750.8       0             -218270.44     -509.29575    
    336500   332.27982     -218761.36      0             -218274        -436.70197    
    336600   328.12443     -218753.59      0             -218272.33     -821.28147    
    336700   331.77836     -218753.26      0             -218266.64     -20.970923    
    336800   332.35205     -218749.42      0             -218261.96     -1069.2658    
    336900   326.82301     -218748.28      0             -218268.92     -600.69059    
    337000   329.58733     -218760.03      0             -218276.62     -20.135192    
    337100   325.14381     -218751.67      0             -218274.78     -1172.1869    
    337200   332.56073     -218756.86      0             -218269.08      206.64423    
    337300   330.79003     -218751.5       0             -218266.32      938.47157    
    337400   331.9685      -218752.77      0             -218265.86     -442.037      
    337500   327.5416      -218754.6       0             -218274.19     -220.36703    
    337600   327.61594     -218758.07      0             -218277.55     -249.79751    
    337700   326.72041     -218754.45      0             -218275.24     -151.22878    
    337800   329.30291     -218749.85      0             -218266.85      197.51693    
    337900   332.1033      -218750.45      0             -218263.35      607.62227    
    338000   329.75988     -218750.14      0             -218266.48     -894.26772    
    338100   330.20038     -218754.71      0             -218270.4      -602.09783    
    338200   331.86609     -218758.36      0             -218271.6      -1115.3451    
    338300   329.74895     -218755.9       0             -218272.25     -575.67724    
    338400   331.65141     -218757.84      0             -218271.4       573.28254    
    338500   328.55281     -218753.74      0             -218271.85      402.57883    
    338600   330.10176     -218755.39      0             -218271.22      68.142203    
    338700   332.44253     -218753.73      0             -218266.13     -230.86598    
    338800   334.098       -218748.9       0             -218258.87     -460.29466    
    338900   337.24295     -218754.86      0             -218260.22     -487.23829    
    339000   330.62739     -218755.84      0             -218270.9       412.22549    
    339100   327.48923     -218754.18      0             -218273.85      45.574759    
    339200   325.66301     -218752.29      0             -218274.64      542.45601    
    339300   331.61103     -218754.22      0             -218267.84      604.22221    
    339400   332.40645     -218751.07      0             -218263.53     -820.12895    
    339500   332.24707     -218752.46      0             -218265.15     -172.16393    
    339600   327.69571     -218755.71      0             -218275.07      790.96931    
    339700   325.54504     -218755.25      0             -218277.77      8.9626032    
    339800   331.52725     -218759.41      0             -218273.15     -385.46678    
    339900   329.809       -218751.06      0             -218267.32     -2.7497751    
    340000   329.93633     -218749.13      0             -218265.21      95.917967    
    340100   325.2434      -218747.89      0             -218270.85     -52.110235    
    340200   329.69698     -218761.99      0             -218278.42      89.015059    
    340300   332.28091     -218765.14      0             -218277.77     -313.54921    
    340400   328.17239     -218755.91      0             -218274.58     -171.47689    
    340500   330.42822     -218755.62      0             -218270.98     -1112.7894    
    340600   332.77717     -218754.68      0             -218266.59      701.57456    
    340700   330.60949     -218749.71      0             -218264.8      -1073.4265    
    340800   330.50231     -218750         0             -218265.25     -1292.6537    
    340900   329.86071     -218754.03      0             -218270.22     -186.26915    
    341000   327.5759      -218755.57      0             -218275.11     -1071.4364    
    341100   328.16013     -218756.19      0             -218274.87      202.50464    
    341200   329.77213     -218750.23      0             -218266.55      713.92213    
    341300   334.58641     -218754.1       0             -218263.35      848.62341    
    341400   330.24561     -218751.6       0             -218267.22      369.05463    
    341500   326.74751     -218750.06      0             -218270.82      994.38417    
    341600   326.96254     -218750.93      0             -218271.37     -380.29608    
    341700   328.16424     -218751.87      0             -218270.54     -426.77777    
    341800   332.69132     -218755.61      0             -218267.64     -1208.7416    
    341900   332.13665     -218747.76      0             -218260.61     -258.00167    
    342000   333.98618     -218749.75      0             -218259.88      53.909959    
    342100   332.79615     -218756.53      0             -218268.42      160.87828    
    342200   329.81986     -218756.74      0             -218272.98     -173.08055    
    342300   331.65041     -218758.22      0             -218271.78     -775.08889    
    342400   330.09883     -218752.33      0             -218268.17      908.24103    
    342500   329.44152     -218743.81      0             -218260.62      1284.7181    
    342600   334.91445     -218746.9       0             -218255.67     -906.94494    
    342700   332.54684     -218752.09      0             -218264.34     -1225.0667    
    342800   330.66907     -218754.68      0             -218269.68      673.39386    
    342900   330.70586     -218757.07      0             -218272.02      604.58292    
    343000   329.88442     -218756.84      0             -218272.99     -150.74304    
    343100   328.61774     -218753.23      0             -218271.24     -402.47851    
    343200   332.40914     -218753.25      0             -218265.7       24.646258    
    343300   331.65574     -218747.73      0             -218261.28     -887.17705    
    343400   327.30705     -218747.98      0             -218267.91     -2049.4832    
    343500   328.92392     -218756.39      0             -218273.95     -1236.5484    
    343600   329.33085     -218755.86      0             -218272.83      384.18955    
    343700   330.65076     -218753.07      0             -218268.1       89.094013    
    343800   330.68356     -218748.05      0             -218263.03     -320.39319    
    343900   330.99959     -218746.92      0             -218261.44     -1332.4312    
    344000   329.84476     -218753.63      0             -218269.84     -1455.4713    
    344100   329.2282      -218758.53      0             -218275.65     -308.48413    
    344200   328.38147     -218756.23      0             -218274.59      503.53214    
    344300   327.5875      -218748.65      0             -218268.17      387.23143    
    344400   329.83895     -218747.26      0             -218263.48      646.78634    
    344500   330.94308     -218751.43      0             -218266.03     -96.006999    
    344600   327.09426     -218757.6       0             -218277.85     -391.14084    
    344700   326.79695     -218757.78      0             -218278.46     -148.30842    
    344800   330.88631     -218757.23      0             -218271.92     -1593.5345    
    344900   333.32702     -218755.49      0             -218266.59     -891.83526    
    345000   332.16879     -218753.06      0             -218265.86     -103.89101    
    345100   330.48724     -218757.66      0             -218272.93     -213.41516    
    345200   327.69508     -218760.03      0             -218279.4      -220.96905    
    345300   330.55449     -218762.73      0             -218277.9      -276.19877    
    345400   328.18531     -218755.39      0             -218274.04      709.94921    
    345500   327.97216     -218751.77      0             -218270.72     -556.14315    
    345600   330.91811     -218752.69      0             -218267.32     -460.55476    
    345700   331.12856     -218750.72      0             -218265.05      67.743448    
    345800   331.63213     -218750.33      0             -218263.92     -348.23252    
    345900   332.67589     -218756.35      0             -218268.41     -391.03511    
    346000   327.30924     -218755.4       0             -218275.33     -33.400509    
    346100   329.71533     -218759.11      0             -218275.51     -816.80337    
    346200   329.10882     -218752.6       0             -218269.89     -1109.6035    
    346300   329.57635     -218745.25      0             -218261.86     -259.26397    
    346400   333.61559     -218750.82      0             -218261.5       659.28352    
    346500   332.45579     -218752.98      0             -218265.37      293.7711     
    346600   332.19864     -218757.33      0             -218270.09      451.16279    
    346700   326.35362     -218754.15      0             -218275.48     -342.81057    
    346800   327.64307     -218757.01      0             -218276.45     -184.79749    
    346900   328.12229     -218748.68      0             -218267.42     -128.62971    
    347000   334.99528     -218753.3       0             -218261.96     -216.35527    
    347100   330.32206     -218750.69      0             -218266.2       631.51419    
    347200   333.24485     -218760.74      0             -218271.97     -316.92778    
    347300   328.64472     -218756.84      0             -218274.81     -461.42123    
    347400   330.36519     -218757.79      0             -218273.24      118.29341    
    347500   333.60125     -218753.93      0             -218264.63     -891.16686    
    347600   335.51612     -218749.73      0             -218257.63     -304.44974    
    347700   332.59991     -218751.68      0             -218263.85      507.98694    
    347800   331.63626     -218757.29      0             -218270.88     -548.41681    
    347900   327.79044     -218754.98      0             -218274.2      -4.0804683    
    348000   328.84982     -218756.24      0             -218273.91      54.081311    
    348100   333.13957     -218755.65      0             -218267.03     -181.10119    
    348200   333.33683     -218749.72      0             -218260.81     -593.02528    
    348300   331.3373      -218750.03      0             -218264.05      466.72101    
    348400   331.94076     -218756.13      0             -218269.27      205.54073    
    348500   329.55752     -218754.62      0             -218271.26     -90.613048    
    348600   332.16636     -218758.07      0             -218270.88     -725.705      
    348700   331.00717     -218754.93      0             -218269.44     -1546.0287    
    348800   335.15093     -218754.16      0             -218262.59     -1005.5619    
    348900   332.35727     -218748.4       0             -218260.93     -757.28411    
    349000   327.08198     -218748.65      0             -218268.91     -747.47369    
    349100   327.29714     -218755.03      0             -218274.98     -874.22557    
    349200   332.25661     -218759.98      0             -218272.66     -113.7799     
    349300   329.54839     -218753.18      0             -218269.83     -667.01073    
    349400   332.78664     -218753.91      0             -218265.81     -173.5086     
    349500   333.92077     -218748.99      0             -218259.22      537.18356    
    349600   333.76695     -218747.66      0             -218258.12      8.245795     
    349700   332.19827     -218755.87      0             -218268.63     -414.53266    
    349800   329.99814     -218756.58      0             -218272.57      551.88445    
    349900   325.41022     -218751.62      0             -218274.34     -1250.4745    
    350000   329.5105      -218755.18      0             -218271.88     -655.92231    
    350100   333.14665     -218752.59      0             -218263.96      703.07249    
    350200   333.61712     -218751.35      0             -218262.03     -599.25985    
    350300   328.94139     -218752.75      0             -218270.29     -847.42248    
    350400   324.41468     -218752.75      0             -218276.93     -953.5813     
    350500   329.17997     -218756.22      0             -218273.41     -375.44551    
    350600   329.80928     -218751.65      0             -218267.92     -643.12033    
    350700   335.20629     -218756.68      0             -218265.02      382.59612    
    350800   328.42692     -218750.5       0             -218268.79      464.63252    
    350900   327.8904      -218759.65      0             -218278.73     -707.22823    
    351000   325.91139     -218756.89      0             -218278.87      454.52813    
    351100   331.54285     -218758.84      0             -218272.56      530.02288    
    351200   326.59185     -218748.28      0             -218269.27      910.89244    
    351300   334.86746     -218758.66      0             -218267.5       123.08994    
    351400   330.66997     -218754.85      0             -218269.85     -903.55367    
    351500   329.9536      -218757.42      0             -218273.48     -645.40911    
    351600   328.50912     -218757.95      0             -218276.12     -1669.3739    
    351700   326.84129     -218758.23      0             -218278.85      40.580581    
    351800   327.56499     -218753.87      0             -218273.42     -104.38798    
    351900   332.27902     -218754.09      0             -218266.73      122.27825    
    352000   328.98018     -218747.36      0             -218264.84     -375.92639    
    352100   334.45553     -218758.13      0             -218267.58     -328.75274    
    352200   328.81668     -218759.31      0             -218277.03      166.82474    
    352300   330.20186     -218761.61      0             -218277.3      -394.24756    
    352400   328.81716     -218755.07      0             -218272.79     -472.76696    
    352500   329.42741     -218753.22      0             -218270.04     -933.53858    
    352600   331.99397     -218756.22      0             -218269.28     -4.3441057    
    352700   329.59844     -218753.65      0             -218270.22     -302.3062     
    352800   328.08156     -218751.54      0             -218270.34     -63.099806    
    352900   332.76908     -218759.95      0             -218271.87      367.48232    
    353000   328.76531     -218757.88      0             -218275.68     -79.985657    
    353100   332.38528     -218762.5       0             -218274.99     -1561.4408    
    353200   331.08989     -218754.14      0             -218268.52     -671.31565    
    353300   331.96166     -218751.68      0             -218264.78     -685.09117    
    353400   333.38252     -218755.45      0             -218266.47      348.01234    
    353500   327.98675     -218755.77      0             -218274.71      773.86291    
    353600   327.70858     -218760.65      0             -218280         339.52444    
    353700   326.41478     -218754.8       0             -218276.04      372.87726    
    353800   330.11144     -218754.32      0             -218270.14      865.27294    
    353900   327.70993     -218748.79      0             -218268.13      224.31755    
    354000   332.86621     -218757.28      0             -218269.06     -671.84163    
    354100   331.81718     -218763.75      0             -218277.07     -147.06695    
    354200   328.30335     -218763.67      0             -218282.14     -810.08972    
    354300   328.73874     -218758.88      0             -218276.71     -246.30537    
    354400   331.73888     -218757.91      0             -218271.34      749.07868    
    354500   331.4342      -218756         0             -218269.88      593.62971    
    354600   330.86947     -218752.25      0             -218266.96     -720.40778    
    354700   331.27367     -218750.9       0             -218265.01     -943.87112    
    354800   331.19182     -218752.19      0             -218266.42     -399.69949    
    354900   327.66386     -218753.3       0             -218272.72     -988.30558    
    355000   327.17278     -218756.94      0             -218277.07     -437.00408    
    355100   327.61395     -218754.6       0             -218274.08     -914.82555    
    355200   330.36518     -218751.34      0             -218266.78      806.42396    
    355300   330.91292     -218750.66      0             -218265.31     -815.28814    
    355400   333.75067     -218756.89      0             -218267.38     -1156.2458    
    355500   329.92707     -218754.73      0             -218270.82      47.810287    
    355600   327.19358     -218755.04      0             -218275.14      418.74756    
    355700   326.09558     -218759.95      0             -218281.66      496.32095    
    355800   325.13044     -218761.03      0             -218284.16     -877.10974    
    355900   330.68406     -218759.74      0             -218274.72     -444.48078    
    356000   331.04539     -218755.28      0             -218269.73      29.231417    
    356100   332.64191     -218755.04      0             -218267.14     -510.55738    
    356200   326.50838     -218748.2       0             -218269.3      -662.20525    
    356300   328.24513     -218756.55      0             -218275.11     -361.39792    
    356400   331.06226     -218765.95      0             -218280.38     -145.96912    
    356500   325.00537     -218753.09      0             -218276.4       672.56906    
    356600   329.5248      -218750.54      0             -218267.22      536.00708    
    356700   330.90503     -218752.46      0             -218267.11     -507.32538    
    356800   330.32354     -218755.51      0             -218271.02      424.619      
    356900   327.36996     -218755.23      0             -218275.07      648.45439    
    357000   330.66513     -218761.63      0             -218276.64      265.7768     
    357100   330.19107     -218754.75      0             -218270.46      41.439169    
    357200   334.3986      -218753.75      0             -218263.28     -515.91863    
    357300   334.22478     -218754.31      0             -218264.1      -717.43703    
    357400   329.21952     -218754.34      0             -218271.47     -331.44785    
    357500   325.65182     -218753.34      0             -218275.7      -588.79081    
    357600   328.66195     -218755.63      0             -218273.58     -1527.0197    
    357700   330.1623      -218753.98      0             -218269.73     -708.7056     
    357800   330.95027     -218752.5       0             -218267.09     -287.35386    
    357900   331.67596     -218751.54      0             -218265.06     -336.56672    
    358000   332.5143      -218755.02      0             -218267.32     -636.69728    
    358100   329.19006     -218755.76      0             -218272.94     -103.15216    
    358200   328.91282     -218758.8       0             -218276.38     -703.12341    
    358300   327.11324     -218754.48      0             -218274.69     -314.19325    
    358400   331.236       -218751.15      0             -218265.32     -550.51082    
    358500   330.121       -218748.14      0             -218263.94     -1449.395     
    358600   332.08709     -218755.67      0             -218268.59     -1197.9729    
    358700   327.44425     -218753.14      0             -218272.88     -505.96502    
    358800   327.82786     -218753.31      0             -218272.48     -1209.5249    
    358900   329.69315     -218754.38      0             -218270.82     -1113.4234    
    359000   329.01444     -218752.82      0             -218270.25     -1270.4494    
    359100   330.27434     -218754.35      0             -218269.94     -1368.0031    
    359200   328.7783      -218752.63      0             -218270.41     -418.99514    
    359300   325.3759      -218748.94      0             -218271.71     -428.12321    
    359400   327.61923     -218754.78      0             -218274.26      100.43238    
    359500   330.80686     -218757.5       0             -218272.3      -396.46055    
    359600   333.74638     -218757.58      0             -218268.07      343.82299    
    359700   329.03229     -218747.06      0             -218264.46      261.00134    
    359800   333.39739     -218753.06      0             -218264.06     -1348.0598    
    359900   328.88868     -218756.18      0             -218273.8      -338.54841    
    360000   328.81326     -218758.86      0             -218276.59     -219.53483    
    360100   327.95513     -218753.65      0             -218272.63     -457.96326    
    360200   332.2909      -218753.68      0             -218266.3      -396.918      
    360300   329.60856     -218749.18      0             -218265.74      724.70357    
    360400   330.21849     -218752.05      0             -218267.71     -188.99528    
    360500   330.49284     -218756.46      0             -218271.72     -2121.425     
    360600   327.22787     -218753.19      0             -218273.24     -213.95191    
    360700   330.05251     -218754         0             -218269.91      1049.9679    
    360800   332.51718     -218747.05      0             -218259.34      794.58672    
    360900   331.93711     -218745.54      0             -218258.68      575.22467    
    361000   332.78022     -218754.82      0             -218266.73      339.98272    
    361100   327.03488     -218750.43      0             -218270.76     -1698.5436    
    361200   330.44568     -218757.45      0             -218272.78     -1023.0992    
    361300   330.25323     -218755.66      0             -218271.27      677.98528    
    361400   333.28503     -218752.81      0             -218263.98      381.1408     
    361500   336.27219     -218752.74      0             -218259.52      165.6974     
    361600   330.45818     -218750.33      0             -218265.64     -320.37313    
    361700   331.94195     -218757.36      0             -218270.49     -1356.1109    
    361800   333.72422     -218760.35      0             -218270.88     -652.46753    
    361900   327.99834     -218753.48      0             -218272.4      -678.71379    
    362000   330.19577     -218758.23      0             -218273.93      1117.8253    
    362100   329.62714     -218753.77      0             -218270.31      297.77298    
    362200   331.11409     -218749.45      0             -218263.8       66.94709     
    362300   331.39035     -218748.3       0             -218262.25     -841.87686    
    362400   330.12789     -218754.57      0             -218270.37     -1162.564     
    362500   326.60124     -218754.33      0             -218275.3      -203.09106    
    362600   329.535       -218756.77      0             -218273.43     -482.86601    
    362700   330.64008     -218754.66      0             -218269.7      -1144.2223    
    362800   331.29576     -218752.73      0             -218266.81      387.73403    
    362900   332.84199     -218748.49      0             -218260.3       419.62937    
    363000   334.18369     -218747.9       0             -218257.75      541.71979    
    363100   337.10625     -218760.89      0             -218266.45     -700.25573    
    363200   330.39008     -218756.05      0             -218271.47     -350.71211    
    363300   327.69245     -218754.06      0             -218273.43     -318.88085    
    363400   328.09747     -218754.66      0             -218273.43     -1357.508     
    363500   330.17738     -218752.61      0             -218268.33     -1346.0582    
    363600   333.90674     -218751.28      0             -218261.54      96.696232    
    363700   332.15459     -218751.84      0             -218264.66      257.05778    
    363800   328.48238     -218753.65      0             -218271.86     -1154.5286    
    363900   326.53654     -218751.06      0             -218272.13     -138.03431    
    364000   329.87679     -218754.08      0             -218270.25     -305.45686    
    364100   330.81431     -218752.2       0             -218266.99     -518.67946    
    364200   331.1189      -218747.41      0             -218261.75     -611.85144    
    364300   336.57071     -218751.84      0             -218258.19     -56.880965    
    364400   332.936       -218754.39      0             -218266.07      1222.2992    
    364500   332.52879     -218760.8       0             -218273.07      1190.0971    
    364600   327.54816     -218755.31      0             -218274.89     -327.06056    
    364700   328.63302     -218752.69      0             -218270.68     -389.28249    
    364800   331.84048     -218750.71      0             -218263.99     -1220.6211    
    364900   329.52261     -218744.49      0             -218261.17     -593.33224    
    365000   330.88418     -218755.76      0             -218270.44     -879.52136    
    365100   329.94201     -218759.67      0             -218275.74     -865.84634    
    365200   329.4872      -218758.43      0             -218275.17     -707.09752    
    365300   329.65047     -218751.73      0             -218268.22     -468.97255    
    365400   338.64584     -218760.29      0             -218263.6      -31.945534    
    365500   332.79415     -218755.43      0             -218267.31     -104.84923    
    365600   328.41475     -218750.98      0             -218269.29      160.57945    
    365700   330.69983     -218756.42      0             -218271.38      660.37895    
    365800   329.32017     -218756.08      0             -218273.06      1559.2149    
    365900   328.37024     -218756.51      0             -218274.89     -657.87684    
    366000   331.65551     -218762.25      0             -218275.8      -1.9296848    
    366100   329.76473     -218756.48      0             -218272.8      -361.84192    
    366200   329.90047     -218750.16      0             -218266.29     -437.29046    
    366300   333.18318     -218751.26      0             -218262.57      79.187102    
    366400   331.52571     -218754.3       0             -218268.04      7.068155     
    366500   331.10915     -218761.26      0             -218275.62     -1093.5176    
    366600   326.25074     -218753.02      0             -218274.5      -334.02746    
    366700   327.5579      -218750.15      0             -218269.72     -502.04308    
    366800   328.81616     -218747.36      0             -218265.08     -684.55445    
    366900   332.49503     -218750.36      0             -218262.69     -508.2792     
    367000   330.9802      -218757.88      0             -218272.43      113.22247    
    367100   329.16364     -218760.62      0             -218277.83      127.55103    
    367200   330.72319     -218761.11      0             -218276.03     -62.76476     
    367300   330.88622     -218754.24      0             -218268.93      26.140211    
    367400   330.35854     -218750.48      0             -218265.94     -614.90192    
    367500   330.85597     -218753.17      0             -218267.9      -1221.9668    
    367600   330.67358     -218755.25      0             -218270.25     -1203.3319    
    367700   329.26071     -218753.85      0             -218270.92     -707.21759    
    367800   328.32441     -218752.36      0             -218270.8      -759.58121    
    367900   329.64753     -218752.67      0             -218269.17      227.62029    
    368000   328.73699     -218747.33      0             -218265.17     -544.46662    
    368005   333.49654     -218754.16      0             -218265.02     -449.5505     
Loop time of 3326.44 on 8 procs for 345000 steps with 11348 atoms

Performance: 8.961 ns/day, 2.678 hours/ns, 103.715 timesteps/s
96.5% CPU use with 8 MPI tasks x 1 OpenMP threads

MPI task timing breakdown:
Section |  min time  |  avg time  |  max time  |%varavg| %total
---------------------------------------------------------------
Pair    | 1042.6     | 1088.3     | 1129.5     |  85.2 | 32.72
Kspace  | 1899.1     | 1939.9     | 1987.3     |  66.2 | 58.32
Neigh   | 130.32     | 134.58     | 139.32     |  22.3 |  4.05
Comm    | 102.98     | 107.71     | 110.78     |  27.3 |  3.24
Output  | 11.944     | 12.284     | 12.335     |   3.7 |  0.37
Modify  | 32.023     | 32.26      | 32.792     |   5.2 |  0.97
Other   |            | 11.36      |            |       |  0.34

Nlocal:         1418.5 ave        1439 max        1399 min
Histogram: 2 0 0 0 2 1 1 0 1 1
Nghost:        3915.12 ave        3936 max        3900 min
Histogram: 1 2 1 1 1 0 0 0 0 2
Neighs:         105207 ave      108720 max      102589 min
Histogram: 2 0 0 1 2 2 0 0 0 1

Total # of neighbors = 841659
Ave neighs/atom = 74.168047
Neighbor list builds = 53026
Dangerous builds = 0

undump              1
unfix               1
unfix               RDF
uncompute           myRDF

print "Temp = ${Tmp}"
Temp = 330

variable Tmp delete
next a
jump SELF loop_start
print "loop body"
loop body
variable Tmp equal (${a}-1)*5+300
variable Tmp equal (8-1)*5+300

reset_timestep 0

velocity	all create 0.00001 87287

pair_style buck/coul/long 8.0
pair_coeff 1 1 0.0        1.0      0.0
pair_coeff 2 2 2029.2204  0.343645 192.58000
pair_coeff 3 3 0.0        1.0      0.0
pair_coeff 4 4 0.0        1.0      0.0
pair_coeff 1 2 41051.9380 0.151160 0.0000
pair_coeff 1 3 0.0        1.0      0.0
pair_coeff 1 4 0.0        1.0      0.0
pair_coeff 2 3 26655.4720 0.181968 86.5860
pair_coeff 2 4 17943.3840 0.226627 127.6500
pair_coeff 3 4 0.0        1.0      0.0
kspace_style pppm 1.0e-4

neighbor	0.3 bin
neigh_modify	every 1 delay 0 check yes

log log.lammps00_${Tmp}
log log.lammps00_335
