
timestep 0.001

min_style cg
minimize 1.0e-4 1.0e-6 1000 10000
PPPM initialization ...
WARNING: System is not charge neutral, net charge = -578.4 (src/kspace.cpp:327)
  using 12-bit tables for long-range coulomb (src/kspace.cpp:342)
  G vector (1/distance) = 0.36886443
  grid = 54 48 64
  stencil order = 5
  estimated absolute RMS force accuracy = 0.0017854557
  estimated relative force accuracy = 0.00012399304
  using double precision FFTW3
  3d grid and FFT values/proc = 34336 20736
Generated 0 of 6 mixed pair_coeff terms from geometric mixing rule
Neighbor list info ...
  update every 1 steps, delay 0 steps, check yes
  max neighbors/atom: 2000, page size: 100000
  master list distance cutoff = 8.3
  ghost atom cutoff = 8.3
  binsize = 4.15, bins = 14 12 18
  1 neighbor lists, perpetual/occasional/extra = 1 0 0
  (1) pair buck/coul/long, perpetual
      attributes: half, newton on
      pair build: half/bin/atomonly/newton
      stencil: half/bin/3d
      bin: standard
Per MPI rank memory allocation (min/avg/max) = 8.305 | 8.306 | 8.307 Mbytes
   Step          Temp          E_pair         E_mol          TotEng         Press     
         0   1e-05         -218728.79      0             -218728.79     -2609.8181    
         5   1e-05         -219103.05      0             -219103.05     -3019.8386    
Loop time of 0.115225 on 8 procs for 5 steps with 11348 atoms

97.8% CPU use with 8 MPI tasks x 1 OpenMP threads

Minimization stats:
  Stopping criterion = energy tolerance
  Energy initial, next-to-last, final = 
     -218728.788124584  -219083.092982776  -219103.045577373
  Force two-norm initial, final = 186.54379 33.490361
  Force max component initial, final = 6.7610806 2.487788
  Final line search alpha, max atom move = 0.046523795 0.11574134
  Iterations, force evaluations = 5 10

MPI task timing breakdown:
Section |  min time  |  avg time  |  max time  |%varavg| %total
---------------------------------------------------------------
Pair    | 0.034403   | 0.044761   | 0.051577   |   2.4 | 38.85
Kspace  | 0.058023   | 0.065247   | 0.075744   |   2.0 | 56.63
Neigh   | 0.0021433  | 0.0023338  | 0.0028239  |   0.5 |  2.03
Comm    | 0.0017659  | 0.0018349  | 0.0019045  |   0.1 |  1.59
Output  | 0          | 0          | 0          |   0.0 |  0.00
Modify  | 0          | 0          | 0          |   0.0 |  0.00
Other   |            | 0.001048   |            |       |  0.91

Nlocal:         1418.5 ave        1444 max        1397 min
Histogram: 1 2 0 0 0 3 1 0 0 1
Nghost:           3894 ave        3906 max        3866 min
Histogram: 1 0 0 1 0 0 1 0 1 4
Neighs:         105141 ave      110461 max      102394 min
Histogram: 2 0 2 2 0 1 0 0 0 1

Total # of neighbors = 841131
Ave neighs/atom = 74.121519
Neighbor list builds = 1
Dangerous builds = 0

fix                 1 all npt temp ${Tmp} ${Tmp} 0.1 iso 1.0 1.0 1.0
fix                 1 all npt temp 315 ${Tmp} 0.1 iso 1.0 1.0 1.0
fix                 1 all npt temp 315 315 0.1 iso 1.0 1.0 1.0
dump                1 all atom 100 dump00_${Tmp}.adp
dump                1 all atom 100 dump00_315.adp
thermo              100
run                 23000
PPPM initialization ...
  using 12-bit tables for long-range coulomb (src/kspace.cpp:342)
  G vector (1/distance) = 0.36886443
  grid = 54 48 64
  stencil order = 5
  estimated absolute RMS force accuracy = 0.0017854557
  estimated relative force accuracy = 0.00012399304
  using double precision FFTW3
  3d grid and FFT values/proc = 34336 20736
Generated 0 of 6 mixed pair_coeff terms from geometric mixing rule
Per MPI rank memory allocation (min/avg/max) = 7.18 | 7.181 | 7.182 Mbytes
   Step          Temp          E_pair         E_mol          TotEng         Press          Volume    
         5   1e-05         -219103.05      0             -219103.05     -3019.8386      191052.45    
       100   34.576337     -219148.3       0             -219097.59      550.132        190264.39    
       200   36.628438     -219137.72      0             -219084         146.90393      190188.9     
       300   41.533128     -219128.37      0             -219067.45     -110.4893       190091.94    
       400   49.159016     -219118.24      0             -219046.13     -72.185739      190049.5     
       500   57.417548     -219105.1       0             -219020.89      417.50052      189921.2     
       600   68.800709     -219088.73      0             -218987.82     -351.87189      190246.73    
       700   81.396108     -219069.92      0             -218950.53      251.7949       190069.15    
       800   96.053201     -219046.84      0             -218905.96     -263.78254      189914.02    
       900   116.83993     -219023.31      0             -218851.94      498.09959      189874.2     
      1000   135.07147     -218986.34      0             -218788.23     -586.99212      190132.98    
      1100   160.41757     -218953.62      0             -218718.33      453.1601       189785.84    
      1200   187.66015     -218911.92      0             -218636.68     -35.647837      190100.9     
      1300   215.791       -218864.73      0             -218548.23      600.05627      190135.46    
      1400   247.28424     -218817.22      0             -218454.52     -377.72816      190494.88    
      1500   279.92948     -218772.93      0             -218362.36      6.7698886      190630.32    
      1600   301.25455     -218722.09      0             -218280.24     -199.01159      190844.38    
      1700   326.52129     -218697.83      0             -218218.92     -1255.6878      191232.04    
      1800   327.16086     -218681.05      0             -218201.19      29.717524      191110.79    
      1900   319.73951     -218693.28      0             -218224.31     -324.81876      191293.69    
      2000   309.41226     -218713.53      0             -218259.71      1255.9736      191176.07    
      2100   306.52831     -218728.69      0             -218279.1      -181.79369      191330.57    
      2200   304.2933      -218722.95      0             -218276.63     -128.42941      191068.93    
      2300   321.02794     -218721.36      0             -218250.5      -640.34905      191217.15    
      2400   323.0784      -218702.81      0             -218228.95      239.57411      190915.18    
      2500   322.33425     -218700.28      0             -218227.5       743.65958      190339.44    
      2600   316.67419     -218707.63      0             -218243.16     -253.80291      190659.87    
      2700   314.57349     -218728.66      0             -218267.27      325.14293      190396.9     
      2800   312.63931     -218736.04      0             -218277.49     -362.38186      190584.07    
      2900   310.84094     -218725.92      0             -218270        -4.8613975      190667.64    
      3000   314.70991     -218711.95      0             -218250.36      285.62013      190680.23    
      3100   321.48372     -218707.3       0             -218235.78      393.51223      190688.42    
      3200   320.3062      -218706.71      0             -218236.91      568.78355      190724.85    
      3300   314.23069     -218712.77      0             -218251.88      341.73145      190908.11    
      3400   311.25657     -218722.78      0             -218266.25     -120.56311      190963       
      3500   310.12061     -218722.32      0             -218267.47     -1646.5379      191180.96    
      3600   311.13231     -218714.36      0             -218258.01      329.19154      191128.42    
      3700   317.40763     -218709.83      0             -218244.28      689.85963      191107.34    
      3800   317.30158     -218702.51      0             -218237.12     -354.14766      191314.73    
      3900   317.93264     -218710.52      0             -218244.2       524.30771      191387.44    
      4000   311.41741     -218717.35      0             -218260.59      1001.358       191081.75    
      4100   308.83753     -218723.8       0             -218270.82      213.35874      191003.33    
      4200   310.36582     -218723.25      0             -218268.04     -413.59434      191094.38    
      4300   316.8875      -218719.74      0             -218254.96      307.43746      190798.91    
      4400   321.05971     -218711.06      0             -218240.16     -353.21547      191075.25    
      4500   319.53207     -218708.34      0             -218239.68      333.40524      190763.07    
      4600   316.02121     -218714.73      0             -218251.21     -484.05429      191033.35    
      4700   311.14469     -218723.94      0             -218267.58     -376.01819      190996.23    
      4800   308.00517     -218725.65      0             -218273.9      -30.530888      190611.98    
      4900   310.1426      -218717         0             -218262.11      126.65576      190620.9     
      5000   318.19706     -218711.68      0             -218244.98      120.90605      190839.34    
      5100   320.88358     -218708.17      0             -218237.52      645.67691      191101.52    
      5200   315.12642     -218708.28      0             -218246.08      110.8144       191245.49    
      5300   313.57343     -218720.85      0             -218260.93      116.82188      190997.07    
      5400   311.31718     -218726.2       0             -218269.59     -567.30177      191339.45    
      5500   311.42956     -218725.01      0             -218268.24      627.60967      190900.27    
      5600   315.91824     -218717.75      0             -218254.39     -111.68146      191198.6     
      5700   320.19835     -218712.61      0             -218242.97      674.75042      191085.22    
      5800   316.38251     -218706.3       0             -218242.26     -1142.9832      191209.27    
      5900   316.41324     -218716.75      0             -218252.66      376.24036      190958.78    
      6000   312.15289     -218720.81      0             -218262.97      257.85815      191154.87    
      6100   310.18696     -218720.41      0             -218265.45      426.90237      191071.56    
      6200   313.91209     -218718.23      0             -218257.81     -292.08815      191024.32    
      6300   320.64554     -218718.41      0             -218248.11      805.63385      190773.65    
      6400   317.53217     -218712.35      0             -218246.62      670.38884      190761.15    
      6500   316.25521     -218718.07      0             -218254.21      414.49973      190714.71    
      6600   313.34063     -218723.45      0             -218263.87     -41.663677      190694.57    
      6700   309.21276     -218720.08      0             -218266.55      161.24952      190854.17    
      6800   313.99077     -218720.15      0             -218259.62     -963.24925      191027.78    
      6900   319.10357     -218718.31      0             -218250.27      712.46043      190756.8     
      7000   317.63549     -218711.19      0             -218245.31      223.56058      190944.12    
      7100   313.29302     -218708.99      0             -218249.48     -115.53795      191093.98    
      7200   318.71284     -218722.38      0             -218254.92     -1146.2232      191491.25    
      7300   313.00387     -218720.4       0             -218261.31     -574.46802      191331.32    
      7400   311.07453     -218717.57      0             -218261.31      201.92998      191280.9     
      7500   314.5242      -218717.3       0             -218255.99      554.67719      191168.17    
      7600   313.50504     -218709.97      0             -218250.15      721.66301      191017.77    
      7700   317.70408     -218714.1       0             -218248.11      564.48457      191111.92    
      7800   315.25684     -218715.31      0             -218252.91     -165.77071      191051.49    
      7900   315.10185     -218722.24      0             -218260.07      446.33135      190932.64    
      8000   315.34763     -218727.34      0             -218264.81      791.07787      190820.51    
      8100   309.2216      -218714.52      0             -218260.98     -500.94196      190864.01    
      8200   316.61883     -218716.78      0             -218252.39     -765.5426       190819.9     
      8300   316.75869     -218711.59      0             -218247        -420.89362      190840.05    
      8400   317.56464     -218714.56      0             -218248.78      237.27892      190915.18    
      8500   313.63195     -218716.49      0             -218256.48      229.92541      190895.94    
      8600   312.51362     -218721.6       0             -218263.23      319.76889      190719.28    
      8700   315.18385     -218724.73      0             -218262.44     -1269.1849      190926.36    
      8800   313.29563     -218717.26      0             -218257.75      960.70385      190637.32    
      8900   316.02462     -218713.63      0             -218250.11      96.745023      190828.68    
      9000   317.93414     -218714.24      0             -218247.92     -23.32631       191004.57    
      9100   313.48842     -218715.18      0             -218255.39      736.65893      190964.6     
      9200   312.43858     -218721.49      0             -218263.24     -164.3788       191284.27    
      9300   312.53399     -218723.75      0             -218265.35     -322.70755      191120.3     
      9400   311.9979      -218716.28      0             -218258.67     -336.77458      191100.34    
      9500   318.72744     -218716.37      0             -218248.89      883.17001      191300.55    
      9600   319.28473     -218713.32      0             -218245.02      816.71685      191170.22    
      9700   320.31453     -218719.75      0             -218249.94     -921.52977      191211.5     
      9800   316.42836     -218724.81      0             -218260.7       1079.16        190652.23    
      9900   313.87368     -218725.03      0             -218264.67      932.66406      190783.34    
     10000   315.70842     -218723.75      0             -218260.69     -93.563054      191135.78    
     10100   313.88912     -218715.89      0             -218255.5       1345.9822      190727.1     
     10200   316.67956     -218712.13      0             -218247.65     -193.69513      191129.99    
     10300   316.51591     -218712.46      0             -218248.22      187.30785      191205.76    
     10400   314.50779     -218717.38      0             -218256.09      12.368849      191004.56    
     10500   314.32747     -218723.65      0             -218262.62      65.878526      190906.08    
     10600   312.02647     -218721.02      0             -218263.37      1152.4353      190839.72    
     10700   312.65169     -218716.64      0             -218258.07     -488.23358      191154.75    
     10800   317.68545     -218716.77      0             -218250.81      219.55574      190915.25    
     10900   315.7688      -218712.78      0             -218249.63      394.62506      190843.34    
     11000   316.54729     -218719.4       0             -218255.11      113.4804       190746.46    
     11100   313.07387     -218722.1       0             -218262.91      365.8657       190729.1     
     11200   311.5742      -218722.31      0             -218265.32     -53.101189      190813.16    
     11300   314.73111     -218724.32      0             -218262.7      -799.15075      190772.57    
     11400   313.055       -218715.92      0             -218256.76     -389.19081      190840.24    
     11500   316.74295     -218714.97      0             -218250.4       264.28823      190972.7     
     11600   316.84802     -218714.67      0             -218249.95     -702.4761       191082.77    
     11700   312.81553     -218715.3       0             -218256.49     -181.59219      191017.02    
     11800   312.88445     -218721.15      0             -218262.24     -74.142021      191082.96    
     11900   313.49805     -218723.24      0             -218263.43     -1171.6292      191187.17    
     12000   313.85195     -218720.09      0             -218259.76      108.91188      190788.08    
     12100   315.77451     -218714.73      0             -218251.58     -416.94299      190986.85    
     12200   317.16554     -218714.46      0             -218249.27      574.58897      190978.41    
     12300   317.21155     -218719.17      0             -218253.91      333.18092      190922.45    
     12400   311.64396     -218718.09      0             -218261        -878.07927      191030.33    
     12500   307.63858     -218717.66      0             -218266.45      42.986496      190996.79    
     12600   315.13622     -218725.34      0             -218263.13      621.81177      190964.18    
     12700   315.91593     -218720.25      0             -218256.9       1146.9302      190912.65    
     12800   318.12515     -218718.31      0             -218251.71      1353.4411      190888.82    
     12900   316.18663     -218715.59      0             -218251.84      1394.7407      190961.2     
     13000   319.45417     -218724.07      0             -218255.52     -265.65581      191121.58    
     13100   314.6741      -218724.75      0             -218263.21      1905.2265      190611.05    
     13200   311.69176     -218720.44      0             -218263.28      822.13886      190934.89    
     13300   314.656       -218719.2       0             -218257.69     -492.07557      191006.2     
     13400   316.22369     -218716.34      0             -218252.53      847.03713      190901.79    
     13500   317.71241     -218717.04      0             -218251.04      570.22892      190916.88    
     13600   315.11179     -218716.58      0             -218254.4      -351.25614      190932.21    
     13700   316.14565     -218724.2       0             -218260.51      26.573953      190903.42    
     13800   311.44792     -218721.17      0             -218264.36     -13.893414      190863.54    
     13900   316.06071     -218724.81      0             -218261.24     -1144.6692      191130.48    
     14000   315.20605     -218719.48      0             -218257.16      886.9341       190858.67    
     14100   315.81053     -218715.1       0             -218251.9      -95.218267      190847.32    
     14200   316.98807     -218716.06      0             -218251.13      548.1172       190834.63    
     14300   317.39162     -218722.05      0             -218256.53     -42.699951      190978.18    
     14400   313.36447     -218723.22      0             -218263.61      56.550015      190970.23    
     14500   310.73897     -218720.66      0             -218264.9       972.37996      191060.38    
     14600   311.69779     -218717.19      0             -218260.02      378.79967      190925.68    
     14700   314.9954      -218714.09      0             -218252.08     -473.93322      190886.24    
     14800   319.15619     -218717.34      0             -218249.22      120.3771       190847.66    
     14900   313.18997     -218714.37      0             -218255.01      798.85367      190735.61    
     15000   315.32162     -218723.84      0             -218261.35      68.005548      190956.6     
     15100   310.21205     -218720.39      0             -218265.4       469.9683       191048.64    
     15200   315.37208     -218724.8       0             -218262.24     -184.46908      190751.96    
     15300   315.58196     -218716.78      0             -218253.92     -1172.038       191096.01    
     15400   317.9728      -218716.42      0             -218250.04      637.50641      190895.97    
     15500   319.56579     -218720.23      0             -218251.52     -71.959422      191240.16    
     15600   315.18915     -218722.12      0             -218259.82      635.95998      190954.27    
     15700   312.99394     -218723.3       0             -218264.23     -990.51098      191195.73    
     15800   313.36812     -218722.47      0             -218262.85      651.22479      190996.31    
     15900   316.95518     -218721.36      0             -218256.48     -590.53512      191107.8     
     16000   314.24237     -218712.64      0             -218251.73     -307.99163      190753.04    
     16100   317.33635     -218715.76      0             -218250.32     -306.69196      190946.06    
     16200   316.28229     -218720.06      0             -218256.16      761.26069      191089.95    
     16300   313.0539      -218722.98      0             -218263.82      648.91317      190984.42    
     16400   313.85638     -218725.82      0             -218265.49      997.20714      190723.82    
     16500   314.34317     -218722.91      0             -218261.86      48.564655      190726.1     
     16600   315.61286     -218718.88      0             -218255.97     -27.46086       190802.44    
     16700   314.67046     -218714.19      0             -218252.66      636.04828      190907.09    
     16800   315.73466     -218716.07      0             -218252.98      80.062508      190835.5     
     16900   318.78966     -218723.26      0             -218255.69     -719.24034      191039.28    
     17000   313.03509     -218719.18      0             -218260.04      579.93258      190947.99    
     17100   312.93074     -218721.69      0             -218262.71      346.88888      190873.75    
     17200   314.49578     -218722.84      0             -218261.56      463.71646      190814.37    
     17300   311.63034     -218714.35      0             -218257.27      239.97856      191167.72    
     17400   320.39791     -218722.67      0             -218252.73      185.14988      191256.53    
     17500   312.6357      -218711.97      0             -218253.42     -774.9174       191403.84    
     17600   316.02764     -218722.42      0             -218258.9       878.22974      190851.49    
     17700   311.73357     -218717.27      0             -218260.04     -1442.5786      191252.69    
     17800   315.80727     -218725.47      0             -218262.27      1514.9229      190672.6     
     17900   314.34281     -218719.34      0             -218258.29     -134.73162      191110.46    
     18000   313.93534     -218715.47      0             -218255.01     -681.33688      190935.47    
     18100   317.73978     -218719.01      0             -218252.97     -984.13096      190935       
     18200   316.76493     -218719.73      0             -218255.13     -1499.9018      191178.41    
     18300   311.50128     -218717.56      0             -218260.68     -104.51575      190742.04    
     18400   311.48975     -218719.3       0             -218262.43     -26.041928      190793.64    
     18500   313.03225     -218719.13      0             -218260.01     -136.06549      190947.69    
     18600   317.31536     -218720.75      0             -218255.34     -612.93089      190878.04    
     18700   315.10731     -218716.53      0             -218254.36      426.52569      190755.16    
     18800   316.22064     -218720.2       0             -218256.4      -495.85391      191040.07    
     18900   314.68701     -218722.73      0             -218261.18     -304.26846      191186.51    
     19000   312.33231     -218720.86      0             -218262.76      700.29922      191321.8     
     19100   314.26957     -218719.62      0             -218258.67      71.421986      191519.06    
     19200   316.29794     -218718.75      0             -218254.83     -21.537226      191200.95    
     19300   315.1889      -218714.2       0             -218251.91     -493.08969      191324.1     
     19400   318.15642     -218721.41      0             -218254.77      183.3764       190975.29    
     19500   314.63105     -218721.02      0             -218259.54     -1044.6916      191077.68    
     19600   314.49172     -218724.98      0             -218263.71      675.83609      190969.17    
     19700   312.61859     -218721.14      0             -218262.62     -506.74458      190959.51    
     19800   314.28425     -218718.13      0             -218257.16      433.27945      190789.35    
     19900   317.5922      -218718.23      0             -218252.42     -121.99779      190943.34    
     20000   315.89207     -218716.56      0             -218253.24     -183.52419      190989.13    
     20100   315.0638      -218719.94      0             -218257.83     -513.5293       191037.24    
     20200   314.10947     -218722.71      0             -218262         646.46633      190731.2     
     20300   314.81422     -218722.35      0             -218260.6      -718.24853      191051.1     
     20400   314.16329     -218719.23      0             -218258.44     -142.50252      190735.33    
     20500   317.38037     -218720.24      0             -218254.73      452.68428      190635.42    
     20600   314.7278      -218716.72      0             -218255.1      -31.132814      190726.33    
     20700   313.48924     -218718.29      0             -218258.49      779.50061      190691.07    
     20800   314.25705     -218720.74      0             -218259.81     -882.33199      191299.54    
     20900   313.94264     -218721.48      0             -218261.02      91.985251      191037.25    
     21000   318.0474      -218723.84      0             -218257.35     -1095.2469      191260.55    
     21100   317.38945     -218720.97      0             -218255.46     -129.51879      191030.03    
     21200   316.33123     -218716.91      0             -218252.94     -1018.5685      191388.72    
     21300   317.37759     -218722.41      0             -218256.91      879.44744      191085.43    
     21400   316.33258     -218724.23      0             -218260.26     -696.88997      191263       
     21500   315.67468     -218726.16      0             -218263.16     -180.25989      190963.81    
     21600   312.23913     -218717.7       0             -218259.74     -1806.6919      191194.25    
     21700   318.03208     -218721.28      0             -218254.82     -333.65081      191032.53    
     21800   317.4962      -218719.54      0             -218253.86     -116.32075      190871.4     
     21900   314.79837     -218718.46      0             -218256.74     -256.76925      190816.34    
     22000   314.34777     -218721.35      0             -218260.29     -186.12179      190902.06    
     22100   314.12335     -218723.55      0             -218262.83      1545.8705      190749.92    
     22200   312.37495     -218718.55      0             -218260.38     -98.045699      190831.25    
     22300   315.62523     -218720.01      0             -218257.08     -847.61308      190828.47    
     22400   316.572       -218719.02      0             -218254.7       291.53709      190837.57    
     22500   315.06908     -218717.3       0             -218255.19     -619.87612      191060.33    
     22600   316.46666     -218723.11      0             -218258.95      597.73306      190897.99    
     22700   311.10846     -218717.5       0             -218261.2       696.88884      191033.53    
     22800   313.68824     -218719.91      0             -218259.82      134.38519      190942.76    
     22900   314.15975     -218716.91      0             -218256.12      72.132293      191052.9     
     23000   318.27947     -218720.97      0             -218254.14      218.76998      191104.4     
     23005   318.45157     -218721.32      0             -218254.24     -123.91712      191103.28    
Loop time of 293.651 on 8 procs for 23000 steps with 11348 atoms

Performance: 6.767 ns/day, 3.547 hours/ns, 78.324 timesteps/s
97.4% CPU use with 8 MPI tasks x 1 OpenMP threads

MPI task timing breakdown:
Section |  min time  |  avg time  |  max time  |%varavg| %total
---------------------------------------------------------------
Pair    | 70.493     | 73.682     | 76.563     |  21.0 | 25.09
Kspace  | 135.43     | 138.47     | 141.96     |  16.6 | 47.16
Neigh   | 8.7728     | 9.0504     | 9.2659     |   5.6 |  3.08
Comm    | 4.334      | 4.3656     | 4.392      |   0.9 |  1.49
Output  | 0.34782    | 0.34896    | 0.35652    |   0.5 |  0.12
Modify  | 53.09      | 54.204     | 55.266     |   9.5 | 18.46
Other   |            | 13.53      |            |       |  4.61

Nlocal:         1418.5 ave        1437 max        1400 min
Histogram: 1 0 1 0 3 0 1 1 0 1
Nghost:        3897.38 ave        3916 max        3881 min
Histogram: 1 0 2 1 0 2 0 1 0 1
Neighs:         105162 ave      109976 max      102630 min
Histogram: 2 0 2 2 0 1 0 0 0 1

Total # of neighbors = 841292
Ave neighs/atom = 74.135707
Neighbor list builds = 3541
Dangerous builds = 0
unfix 1

timestep 0.001
fix                 1 all nvt temp ${Tmp} ${Tmp} 0.1
fix                 1 all nvt temp 315 ${Tmp} 0.1
fix                 1 all nvt temp 315 315 0.1
compute             myRDF all rdf 100
fix                 RDF all ave/time 100 1 100 c_myRDF[*] file lammps00_${Tmp}.rdf mode vector
fix                 RDF all ave/time 100 1 100 c_myRDF[*] file lammps00_315.rdf mode vector
run                 345000
PPPM initialization ...
  using 12-bit tables for long-range coulomb (src/kspace.cpp:342)
  G vector (1/distance) = 0.36885641
  grid = 54 48 64
  stencil order = 5
  estimated absolute RMS force accuracy = 0.0017859204
  estimated relative force accuracy = 0.00012402531
  using double precision FFTW3
  3d grid and FFT values/proc = 34336 20736
Generated 0 of 6 mixed pair_coeff terms from geometric mixing rule
Neighbor list info ...
  update every 1 steps, delay 0 steps, check yes
  max neighbors/atom: 2000, page size: 100000
  master list distance cutoff = 8.3
  ghost atom cutoff = 8.3
  binsize = 4.15, bins = 14 12 18
  2 neighbor lists, perpetual/occasional/extra = 1 1 0
  (1) pair buck/coul/long, perpetual
      attributes: half, newton on
      pair build: half/bin/atomonly/newton
      stencil: half/bin/3d
      bin: standard
  (2) compute rdf, occasional, copy from (1)
      attributes: half, newton on
      pair build: copy
      stencil: none
      bin: none
Per MPI rank memory allocation (min/avg/max) = 8.236 | 8.236 | 8.237 Mbytes
   Step          Temp          E_pair         E_mol          TotEng         Press     
     23005   318.45157     -218721.32      0             -218254.24     -123.80666    
     23100   315.69617     -218718.47      0             -218255.43      94.177334    
     23200   314.52115     -218723.73      0             -218262.41      137.11545    
     23300   310.14702     -218721.82      0             -218266.92     -439.11574    
     23400   313.63486     -218722.58      0             -218262.57     -670.1207     
     23500   316.36995     -218719.7       0             -218255.67     -407.63706    
     23600   315.06234     -218717.86      0             -218255.76     -992.8179     
     23700   314.9078      -218719.61      0             -218257.73     -147.76561    
     23800   316.20555     -218724.32      0             -218260.53      772.15159    
     23900   312.24402     -218718.69      0             -218260.71     -697.05553    
     24000   314.25551     -218715.26      0             -218254.34     -368.38623    
     24100   317.43505     -218715.84      0             -218250.26      241.10485    
     24200   317.80491     -218719.96      0             -218253.83      665.74972    
     24300   316.94102     -218727.89      0             -218263.03      501.27306    
     24400   316.25866     -218726.54      0             -218262.68      288.74429    
     24500   313.7111      -218719.65      0             -218259.52      603.57223    
     24600   311.7839      -218711.51      0             -218254.22     -523.46306    
     24700   316.29057     -218716.55      0             -218252.65     -19.961792    
     24800   312.33232     -218718.45      0             -218260.34     -501.73826    
     24900   313.64216     -218726.47      0             -218266.44     -719.63245    
     25000   315.2417      -218724.8       0             -218262.43      1147.3087    
     25100   311.15226     -218712.64      0             -218256.27      881.18628    
     25200   314.4122      -218715.36      0             -218254.2       240.91186    
     25300   312.47378     -218713.21      0             -218254.9      -698.0676     
     25400   311.92652     -218716.76      0             -218259.25     -500.06802    
     25500   311.48582     -218726.71      0             -218269.85      165.85055    
     25600   310.59668     -218725.09      0             -218269.54     -584.28442    
     25700   313.09378     -218722.6       0             -218263.38     -257.5072     
     25800   314.8768      -218720.56      0             -218258.72      190.19352    
     25900   315.36461     -218719.39      0             -218256.84      321.59194    
     26000   319.00956     -218721.85      0             -218253.95      843.78782    
     26100   318.60148     -218720.06      0             -218252.76     -433.86331    
     26200   313.26537     -218716.91      0             -218257.44     -574.80242    
     26300   312.92659     -218722.73      0             -218263.75     -916.6254     
     26400   312.66165     -218722.31      0             -218263.72     -633.88159    
     26500   316.16193     -218719.94      0             -218256.22     -538.47516    
     26600   318.82894     -218720.09      0             -218252.46     -738.78753    
     26700   314.38546     -218715.87      0             -218254.75     -320.90525    
     26800   315.1439      -218720.27      0             -218258.05     -670.04789    
     26900   314.92764     -218724.99      0             -218263.08      691.43264    
     27000   311.97129     -218725.14      0             -218267.57      97.262213    
     27100   312.68672     -218724.38      0             -218265.76     -772.32946    
     27200   316.23456     -218720.55      0             -218256.73      1082.4859    
     27300   316.72548     -218718         0             -218253.46     -351.91892    
     27400   313.91083     -218715.8       0             -218255.39      254.84843    
     27500   316.71841     -218726.01      0             -218261.47     -692.55237    
     27600   311.33648     -218724.51      0             -218267.87      1292.9249    
     27700   315.16136     -218727.99      0             -218265.74      7.3386859    
     27800   313.7401      -218720.74      0             -218260.58     -68.68539     
     27900   312.43855     -218716.11      0             -218257.85     -1283.7808    
     28000   316.67723     -218720.14      0             -218255.67     -347.75597    
     28100   317.40266     -218719.51      0             -218253.97     -46.616908    
     28200   317.71042     -218722.01      0             -218256.02     -932.10169    
     28300   312.81401     -218721.15      0             -218262.34     -62.142706    
     28400   313.76452     -218723.99      0             -218263.79     -391.68199    
     28500   318.69635     -218724.37      0             -218256.94      503.66398    
     28600   314.47039     -218712.29      0             -218251.05      834.03419    
     28700   316.94665     -218718.48      0             -218253.61      599.42999    
     28800   315.55793     -218721.54      0             -218258.71      476.78695    
     28900   312.56726     -218720.04      0             -218261.59     -1032.2042    
     29000   315.15313     -218722.85      0             -218260.61      207.42824    
     29100   313.59391     -218718.05      0             -218258.1       405.72917    
     29200   315.33164     -218717.84      0             -218255.34     -486.37828    
     29300   316.40968     -218716.53      0             -218252.45     -527.83617    
     29400   318.87451     -218716.07      0             -218248.37     -1319.2338    
     29500   317.7749      -218718.85      0             -218252.76     -164.49432    
     29600   316.79611     -218725.03      0             -218260.38     -849.44291    
     29700   312.11289     -218718.79      0             -218261.01     -432.77667    
     29800   313.08601     -218716.81      0             -218257.6      -273.50034    
     29900   318.81208     -218717.84      0             -218250.23      813.18827    
     30000   318.54096     -218715.31      0             -218248.1       301.87737    
     30100   312.85708     -218718.42      0             -218259.55     -1164.8385    
     30200   311.06715     -218719.44      0             -218263.2       195.05024    
     30300   316.12204     -218722.94      0             -218259.28      487.71461    
     30400   315.99383     -218718         0             -218254.53     -352.27341    
     30500   315.6552      -218715.78      0             -218252.81     -353.19005    
     30600   313.62892     -218718.59      0             -218258.59     -398.14459    
     30700   313.97372     -218726.2       0             -218265.69     -865.75246    
     30800   310.12924     -218719.27      0             -218264.4       107.0587     
     30900   315.3126      -218721.34      0             -218258.87     -345.54202    
     31000   316.34868     -218720.93      0             -218256.94      56.703365    
     31100   315.4944      -218719.67      0             -218256.93     -312.67579    
     31200   313.32908     -218716.1       0             -218256.54     -945.1832     
     31300   318.84036     -218720.65      0             -218253.01     -91.678925    
     31400   313.4803      -218710.32      0             -218250.53      38.966696    
     31500   314.65074     -218715.37      0             -218253.86      550.23559    
     31600   312.87173     -218720.5       0             -218261.61      841.17733    
     31700   310.80341     -218718.92      0             -218263.06     -219.14202    
     31800   314.68457     -218721.01      0             -218259.46     -1204.1494    
     31900   320.4399      -218722.79      0             -218252.8      -594.57322    
     32000   317.76726     -218719.1       0             -218253.02      511.61172    
     32100   314.7258      -218717.26      0             -218255.64     -679.76217    
     32200   314.85063     -218720.3       0             -218258.5       736.89291    
     32300   312.06099     -218720.01      0             -218262.31      646.9318     
     32400   313.06003     -218723.68      0             -218264.51     -739.96996    
     32500   316.04047     -218722.37      0             -218258.83     -328.97671    
     32600   316.13296     -218716.22      0             -218252.55     -545.22053    
     32700   317.23609     -218718.01      0             -218252.71     -1160.4381    
     32800   317.64158     -218725.35      0             -218259.46     -624.90762    
     32900   315.44253     -218724.78      0             -218262.12     -485.61076    
     33000   312.61085     -218719.25      0             -218260.74     -764.10667    
     33100   313.78521     -218719.58      0             -218259.35     -53.981685    
     33200   316.28665     -218722.01      0             -218258.11     -225.71933    
     33300   315.29173     -218716.1       0             -218253.66     -347.40754    
     33400   320.32403     -218717.67      0             -218247.85     -346.62452    
     33500   313.52008     -218713.63      0             -218253.79      11.776992    
     33600   315.43574     -218723.36      0             -218260.7      -300.37351    
     33700   315.38612     -218724.46      0             -218261.88     -333.98097    
     33800   316.4698      -218722.89      0             -218258.71     -707.54516    
     33900   319.39936     -218720.46      0             -218252         322.01041    
     34000   315.21726     -218715.63      0             -218253.3       73.621193    
     34100   315.8774      -218723.93      0             -218260.63      157.1165     
     34200   310.72304     -218725.01      0             -218269.27      634.24844    
     34300   311.66939     -218723.55      0             -218266.42      508.40565    
     34400   314.52771     -218720.73      0             -218259.41      170.67234    
     34500   313.04915     -218714.19      0             -218255.03     -1491.9106    
     34600   314.54896     -218715.43      0             -218254.08      43.070784    
     34700   317.67555     -218725.23      0             -218259.29     -315.06882    
     34800   309.45511     -218721         0             -218267.12     -476.01173    
     34900   314.4094      -218725.89      0             -218264.74     -654.27432    
     35000   316.00936     -218723.79      0             -218260.3      -104.14572    
     35100   313.79303     -218718.91      0             -218258.66      198.40039    
     35200   316.66299     -218720.96      0             -218256.51      296.25461    
     35300   316.51067     -218719.41      0             -218255.17     -1508.4771    
     35400   317.43193     -218717.79      0             -218252.21     -1489.3784    
     35500   319.26686     -218721.87      0             -218253.6      -1475.5086    
     35600   314.25829     -218721.25      0             -218260.32      210.89086    
     35700   314.60327     -218724.36      0             -218262.93     -430.76947    
     35800   314.12487     -218720.5       0             -218259.77     -67.888234    
     35900   314.65516     -218712.84      0             -218251.33      459.24605    
     36000   315.54136     -218712.91      0             -218250.1       32.617974    
     36100   315.73175     -218715.73      0             -218252.65     -816.74681    
     36200   315.19982     -218718.98      0             -218256.67     -591.99383    
     36300   311.37863     -218715.54      0             -218258.84     -736.33643    
     36400   315.93221     -218723.43      0             -218260.05      368.92204    
     36500   317.00962     -218724.19      0             -218259.23      302.38158    
     36600   318.22172     -218720.88      0             -218254.14     -1284.0128    
     36700   317.45349     -218717.05      0             -218251.44     -1060.4352    
     36800   315.28217     -218717.18      0             -218254.75     -867.26314    
     36900   314.413       -218722.66      0             -218261.5      -1056.3534    
     37000   308.88233     -218716.39      0             -218263.35     -501.65871    
     37100   313.68555     -218719.37      0             -218259.28     -737.11525    
     37200   317.92426     -218714.48      0             -218248.18     -31.753701    
     37300   316.53085     -218713.12      0             -218248.86      139.29948    
     37400   315.03269     -218717.53      0             -218255.47      160.97516    
     37500   313.2505      -218720.12      0             -218260.67     -852.06826    
     37600   315.4415      -218724.03      0             -218261.37     -873.59127    
     37700   314.09779     -218720.26      0             -218259.57     -308.53657    
     37800   317.7125      -218717.82      0             -218251.83      278.96241    
     37900   322.32863     -218721.32      0             -218248.56      2.4071574    
     38000   318.04619     -218721.47      0             -218254.99     -29.169253    
     38100   317.23384     -218726.04      0             -218260.75      971.35738    
     38200   314.2208      -218721.31      0             -218260.44     -1064.8077    
     38300   312.54477     -218716.76      0             -218258.35      247.80076    
     38400   316.1765      -218716.67      0             -218252.93     -771.36319    
     38500   316.63145     -218712.13      0             -218247.72      918.94866    
     38600   318.19558     -218712.48      0             -218245.78     -1187.7078    
     38700   315.70477     -218719.42      0             -218256.37     -582.92205    
     38800   314.25314     -218721.63      0             -218260.71     -285.93107    
     38900   314.21533     -218722.53      0             -218261.67      550.97041    
     39000   314.37328     -218720.1       0             -218259         134.60331    
     39100   314.16737     -218712.76      0             -218251.97      276.1441     
     39200   315.57298     -218711.65      0             -218248.8       672.54594    
     39300   317.32179     -218720.37      0             -218254.95      399.68992    
     39400   316.00619     -218722.08      0             -218258.59     -1023.9705    
     39500   315.07717     -218720.94      0             -218258.82     -789.61781    
     39600   312.73227     -218716         0             -218257.32      21.44894     
     39700   315.09588     -218716.36      0             -218254.21     -1065.1399    
     39800   316.52797     -218715.08      0             -218250.82     -904.44129    
     39900   318.15226     -218716.97      0             -218250.33     -769.95419    
     40000   315.29032     -218721.06      0             -218258.61     -411.64495    
     40100   314.5773      -218724.21      0             -218262.81      350.25994    
     40200   315.71466     -218724.16      0             -218261.09      351.31012    
     40300   315.98051     -218718.67      0             -218255.21      266.1351     
     40400   320.51416     -218717.69      0             -218247.59     -33.080103    
     40500   318.50617     -218716.25      0             -218249.09     -460.55091    
     40600   311.35433     -218717.43      0             -218260.76     -365.26413    
     40700   312.09999     -218718.57      0             -218260.81     -1426.8301    
     40800   315.01631     -218719.53      0             -218257.49     -236.67483    
     40900   312.34991     -218712.34      0             -218254.22     -267.05917    
     41000   318.02089     -218717.54      0             -218251.1      -46.423128    
     41100   316.95085     -218720.31      0             -218255.43     -810.77281    
     41200   311.74904     -218720.55      0             -218263.31     -242.62977    
     41300   313.67804     -218722.96      0             -218262.89     -485.44178    
     41400   316.65683     -218723.69      0             -218259.24     -1145.9436    
     41500   315.17865     -218719.41      0             -218257.13     -290.16389    
     41600   313.214       -218716.17      0             -218256.77     -757.23451    
     41700   315.35964     -218719.82      0             -218257.28      243.44985    
     41800   316.09651     -218722.18      0             -218258.56      157.53995    
     41900   315.52596     -218721.95      0             -218259.17      604.74626    
     42000   314.50836     -218720.85      0             -218259.56      313.68366    
     42100   314.05564     -218718.61      0             -218257.98     -10.526944    
     42200   316.51059     -218719.49      0             -218255.26     -931.79468    
     42300   315.95329     -218716.37      0             -218252.96     -612.24972    
     42400   317.6085      -218719.46      0             -218253.62     -403.97486    
     42500   315.33026     -218723.97      0             -218261.47     -426.55639    
     42600   312.40552     -218722.55      0             -218264.34      61.671006    
     42700   313.02533     -218721.04      0             -218261.93     -469.18202    
     42800   315.67636     -218714.98      0             -218251.97      1204.9244    
     42900   319.25529     -218718.14      0             -218249.88      504.41842    
     43000   315.23451     -218717.52      0             -218255.16     -206.92909    
     43100   315.98938     -218722.96      0             -218259.49     -74.935466    
     43200   316.49164     -218726.16      0             -218261.95     -931.35798    
     43300   318.16987     -218729.81      0             -218263.15      711.4349     
     43400   315.66035     -218722.61      0             -218259.63      707.57319    
     43500   318.42567     -218720.32      0             -218253.28      24.916655    
     43600   317.01231     -218717.95      0             -218252.98      135.15163    
     43700   313.01687     -218717.89      0             -218258.78     -720.86302    
     43800   309.2024      -218718.56      0             -218265.05     -834.37907    
     43900   310.74927     -218719.15      0             -218263.37      274.72432    
     44000   314.42988     -218721.35      0             -218260.17     -371.91901    
     44100   310.90739     -218715.26      0             -218259.25     -906.06038    
     44200   313.4655      -218717.73      0             -218257.97     -529.37881    
     44300   317.37015     -218721.66      0             -218256.17      435.40643    
     44400   315.78235     -218718.19      0             -218255.02      173.58551    
     44500   318.19234     -218724.06      0             -218257.37     -789.1383     
     44600   313.91773     -218723.53      0             -218263.1      -417.34685    
     44700   313.8973      -218725.61      0             -218265.21     -385.72218    
     44800   312.77175     -218719.49      0             -218260.74      211.50452    
     44900   317.10888     -218717.71      0             -218252.6       185.13775    
     45000   316.66461     -218717.46      0             -218253        -120.68333    
     45100   317.54727     -218722.97      0             -218257.22     -1182.597     
     45200   314.40823     -218722         0             -218260.85     -1102.1068    
     45300   315.01648     -218722.63      0             -218260.59     -242.8906     
     45400   316.38045     -218724.11      0             -218260.07     -610.84154    
     45500   315.20554     -218720.17      0             -218257.86      29.799446    
     45600   319.47979     -218721.05      0             -218252.47      374.02662    
     45700   316.46587     -218712.84      0             -218248.68     -633.05807    
     45800   315.06334     -218715.97      0             -218253.86      932.9589     
     45900   315.79638     -218724.18      0             -218261         582.64075    
     46000   315.27213     -218724.69      0             -218262.28      379.24011    
     46100   316.39029     -218725.17      0             -218261.12      28.702626    
     46200   317.31023     -218719.71      0             -218254.31      43.91924     
     46300   319.12528     -218716.89      0             -218248.82     -560.0236     
     46400   317.66982     -218718.81      0             -218252.88     -628.55575    
     46500   316.93802     -218722.91      0             -218258.05     -470.21941    
     46600   313.11966     -218718.42      0             -218259.16     -493.0109     
     46700   314.61247     -218721.18      0             -218259.73     -225.51899    
     46800   312.8913      -218720.9       0             -218261.98     -301.55109    
     46900   310.59441     -218720.57      0             -218265.02     -55.589516    
     47000   312.50646     -218722.35      0             -218264         898.59023    
     47100   317.45537     -218722.23      0             -218256.61      267.52331    
     47200   316.67688     -218717.29      0             -218252.82     -1012.6666    
     47300   316.70953     -218719.82      0             -218255.3       33.048161    
     47400   312.83905     -218721.24      0             -218262.4       145.28706    
     47500   309.95818     -218721.44      0             -218266.82     -414.13886    
     47600   311.62897     -218721.99      0             -218264.92      379.84265    
     47700   313.2167      -218720.26      0             -218260.86      675.37688    
     47800   315.13596     -218718.2       0             -218255.99      718.38438    
     47900   318.90733     -218721.9       0             -218254.16     -33.82675     
     48000   315.89851     -218723.93      0             -218260.59     -260.86871    
     48100   311.28313     -218724.03      0             -218267.46     -771.634      
     48200   312.5427      -218722.63      0             -218264.22      41.210463    
     48300   316.05299     -218721.36      0             -218257.8       1006.0241    
     48400   315.10425     -218718.59      0             -218256.42      565.86696    
     48500   315.61287     -218721.48      0             -218258.57     -597.70517    
     48600   312.30602     -218722.56      0             -218264.5       588.48435    
     48700   310.26827     -218728.26      0             -218273.18      629.94364    
     48800   310.52912     -218725.92      0             -218270.46      544.64339    
     48900   312.21118     -218723.01      0             -218265.09     -505.66806    
     49000   315.24701     -218721.6       0             -218259.22      719.66107    
     49100   315.31516     -218718         0             -218255.53     -349.33471    
     49200   316.8084      -218721.2       0             -218256.54     -1210.1742    
     49300   313.98095     -218724.62      0             -218264.1      -656.46291    
     49400   311.78488     -218725.9       0             -218268.6      -999.66386    
     49500   312.4598      -218722.23      0             -218263.94      136.62464    
     49600   313.4525      -218719.65      0             -218259.9      -633.3473     
     49700   315.90951     -218722.81      0             -218259.46     -329.32366    
     49800   314.24504     -218719.1       0             -218258.19      521.19188    
     49900   320.40407     -218725.87      0             -218255.93     -141.88958    
     50000   317.81382     -218719.68      0             -218253.54      512.92953    
     50100   312.4691      -218715.68      0             -218257.38      465.41337    
     50200   312.02483     -218721.54      0             -218263.88     -1110.4652    
     50300   315.14186     -218727.78      0             -218265.55     -225.84572    
     50400   314.31051     -218722.76      0             -218261.76     -630.94367    
     50500   317.05185     -218717.3       0             -218252.27      431.21251    
     50600   317.50342     -218717.22      0             -218251.54     -250.73729    
     50700   314.72762     -218716.99      0             -218255.37     -740.77304    
     50800   312.24108     -218719.26      0             -218261.29     -290.10659    
     50900   311.30827     -218721.11      0             -218264.51     -269.2498     
     51000   314.98892     -218724.31      0             -218262.31      182.45466    
     51100   316.66397     -218721.36      0             -218256.9       250.74789    
     51200   318.11252     -218716.78      0             -218250.2       627.25727    
     51300   322.8197      -218713.27      0             -218239.79      7.575805     
     51400   315.97533     -218709.63      0             -218246.19     -264.23783    
     51500   317.17631     -218718.94      0             -218253.74      1044.325     
     51600   313.31712     -218719.24      0             -218259.69      610.38534    
     51700   312.1637      -218721.74      0             -218263.89      181.84665    
     51800   311.67487     -218720.99      0             -218263.85      690.60837    
     51900   315.07085     -218717.94      0             -218255.82     -252.16821    
     52000   315.6122      -218714.24      0             -218251.33     -308.27637    
     52100   318.83983     -218721.24      0             -218253.6       153.96032    
     52200   312.46729     -218716.42      0             -218258.12      736.07509    
     52300   312.72794     -218718.81      0             -218260.13     -591.28836    
     52400   316.1953      -218723.28      0             -218259.51     -304.14143    
     52500   314.65098     -218720.42      0             -218258.92      253.53002    
     52600   317.4023      -218719.04      0             -218253.5      -344.83705    
     52700   318.93764     -218718.42      0             -218250.63      422.33804    
     52800   316.4964      -218720.85      0             -218256.64      277.90431    
     52900   310.68577     -218718.2       0             -218262.51     -901.36463    
     53000   313.1685      -218720.94      0             -218261.61      611.2271     
     53100   316.00981     -218722.83      0             -218259.33      951.68668    
     53200   316.79482     -218717.32      0             -218252.67      349.5824     
     53300   315.15901     -218709.83      0             -218247.58     -62.851112    
     53400   315.18881     -218715.94      0             -218253.64      518.94655    
     53500   311.44139     -218717.17      0             -218260.38      393.18159    
     53600   312.2306      -218719.16      0             -218261.21      1050.2044    
     53700   314.13562     -218721.09      0             -218260.34     -912.10465    
     53800   313.52743     -218715.45      0             -218255.6      -881.42099    
     53900   319.01919     -218717.41      0             -218249.5      -1371.6969    
     54000   314.10811     -218713.01      0             -218252.3      -184.11008    
     54100   313.61049     -218721.55      0             -218261.58      393.24079    
     54200   313.73409     -218722.52      0             -218262.36     -428.209      
     54300   316.07849     -218723.25      0             -218259.65      270.17566    
     54400   319.52356     -218724.04      0             -218255.39      583.74865    
     54500   318.15835     -218718.43      0             -218251.78      1607.8222    
     54600   314.78461     -218717.68      0             -218255.98     -1192.0329    
     54700   313.10286     -218723.58      0             -218264.35     -101.73846    
     54800   314.06188     -218724.72      0             -218264.08     -670.73235    
     54900   317.99631     -218725.11      0             -218258.7      -774.13908    
     55000   315.90537     -218716.36      0             -218253.01     -684.58077    
     55100   316.69276     -218717.48      0             -218252.99      26.69971     
     55200   315.51602     -218720.85      0             -218258.08     -569.62345    
     55300   312.75424     -218727.54      0             -218268.82     -1212.8948    
     55400   312.45802     -218728.06      0             -218269.77      1022.5338    
     55500   314.50245     -218724.12      0             -218262.84      1206.5545    
     55600   315.03993     -218717.9       0             -218255.83     -415.62006    
     55700   314.33319     -218715.04      0             -218254        -1008.9102    
     55800   311.90985     -218714.52      0             -218257.04      235.51522    
     55900   314.88856     -218725.72      0             -218263.87      639.70168    
     56000   312.89485     -218724.28      0             -218265.35     -19.997849    
     56100   313.77178     -218722.03      0             -218261.82     -420.17272    
     56200   317.91101     -218723.54      0             -218257.26     -52.505597    
     56300   318.20444     -218723.28      0             -218256.56     -895.35308    
     56400   313.85962     -218719.01      0             -218258.67     -1168.1746    
     56500   314.5161      -218721.17      0             -218259.87     -941.02226    
     56600   315.47368     -218720.69      0             -218257.98      285.60623    
     56700   317.19088     -218719.6       0             -218254.37     -1371.4538    
     56800   314.48999     -218715.36      0             -218254.09     -421.28698    
     56900   312.76412     -218719.51      0             -218260.78     -811.79773    
     57000   311.50097     -218723.48      0             -218266.6      -1369.6073    
     57100   313.3481      -218724.76      0             -218265.16      87.922423    
     57200   315.42036     -218722.4       0             -218259.77     -519.36799    
     57300   315.89857     -218720.39      0             -218257.05     -78.66351     
     57400   316.00086     -218721.03      0             -218257.55     -541.69301    
     57500   316.46881     -218723.38      0             -218259.21      335.88503    
     57600   313.33181     -218724.39      0             -218264.83     -544.32083    
     57700   312.7807      -218726.4       0             -218267.64     -325.9226     
     57800   316.27351     -218726.11      0             -218262.23     -578.87598    
     57900   317.54837     -218720.06      0             -218254.31     -1507.2125    
     58000   317.49526     -218719.73      0             -218254.05     -228.11317    
     58100   311.74817     -218716.98      0             -218259.73     -117.91189    
     58200   315.67747     -218728.22      0             -218265.21     -256.04789    
     58300   315.48202     -218728.57      0             -218265.85      721.47864    
     58400   313.59638     -218720.02      0             -218260.06      776.18056    
     58500   318.33031     -218718.39      0             -218251.49      45.695294    
     58600   318.00271     -218721.63      0             -218255.21     -411.45822    
     58700   315.27641     -218724.22      0             -218261.8      -120.60487    
     58800   312.25386     -218723.28      0             -218265.29     -565.67904    
     58900   311.69196     -218721.56      0             -218264.39     -284.65739    
     59000   319.8099      -218724.93      0             -218255.86     -146.56871    
     59100   316.45845     -218717.27      0             -218253.11     -1290.146     
     59200   317.64287     -218721.69      0             -218255.8       468.23636    
     59300   316.65255     -218725.4       0             -218260.96     -534.78071    
     59400   311.1997      -218719.63      0             -218263.19     -221.14028    
     59500   316.23185     -218725.37      0             -218261.55     -952.6126     
     59600   316.05962     -218723.06      0             -218259.49     -240.89548    
     59700   314.22267     -218718.25      0             -218257.38      381.41383    
     59800   315.68815     -218715.97      0             -218252.94     -307.78757    
     59900   317.7792      -218716         0             -218249.91     -209.94095    
     60000   317.73795     -218721.96      0             -218255.93      211.75243    
     60100   315.91885     -218725.4       0             -218262.04      69.589893    
     60200   314.45896     -218724.29      0             -218263.07     -565.10313    
     60300   313.51934     -218720.37      0             -218260.53      72.781391    
     60400   318.36351     -218718.28      0             -218251.33     -311.1847     
     60500   317.95789     -218717.94      0             -218251.59     -391.81373    
     60600   313.65516     -218715.94      0             -218255.9      -566.48341    
     60700   315.20631     -218721.58      0             -218259.26      153.35573    
     60800   315.47377     -218723.48      0             -218260.77      322.86741    
     60900   313.96889     -218721.65      0             -218261.15      535.43366    
     61000   315.98804     -218720.11      0             -218256.64     -370.02346    
     61100   318.57911     -218715.01      0             -218247.75     -10.672505    
     61200   316.12731     -218716.01      0             -218252.34      457.63544    
     61300   314.56734     -218720.97      0             -218259.59     -209.6971     
     61400   315.90415     -218725.39      0             -218262.05      741.61421    
     61500   318.44281     -218729.07      0             -218262.01     -112.05017    
     61600   315.43797     -218720.88      0             -218258.23     -1673.3358    
     61700   318.9115      -218717.12      0             -218249.37     -913.38583    
     61800   317.35576     -218717.11      0             -218251.64     -6.0110341    
     61900   315.24637     -218720.96      0             -218258.59     -744.65773    
     62000   313.51542     -218720.47      0             -218260.63     -167.00072    
     62100   316.41758     -218724.87      0             -218260.77     -481.384      
     62200   315.17108     -218720.66      0             -218258.4       560.65518    
     62300   314.48734     -218713.41      0             -218252.15     -430.82155    
     62400   319.44201     -218718.73      0             -218250.2       261.15363    
     62500   315.25617     -218721.13      0             -218258.74      161.16415    
     62600   316.20595     -218726.18      0             -218262.4       415.88608    
     62700   313.62766     -218722.86      0             -218262.86      72.637035    
     62800   313.29705     -218719.16      0             -218259.64     -5.9959972    
     62900   317.11731     -218717.62      0             -218252.5       202.37235    
     63000   320.71697     -218718.19      0             -218247.79      262.43942    
     63100   314.28821     -218718.25      0             -218257.28      4.8224822    
     63200   317.02713     -218728.18      0             -218263.19      583.72279    
     63300   313.70692     -218723.89      0             -218263.77     -342.04648    
     63400   316.43298     -218723.31      0             -218259.2      -1486.372     
     63500   317.04336     -218718.29      0             -218253.27      342.47219    
     63600   318.30985     -218720.6       0             -218253.73      1030.373     
     63700   313.21517     -218721.06      0             -218261.67      465.15982    
     63800   316.42434     -218728.03      0             -218263.92     -49.930909    
     63900   316.19764     -218726.12      0             -218262.35     -758.95541    
     64000   316.22125     -218722.26      0             -218258.45      522.03913    
     64100   314.95995     -218717         0             -218255.05      514.73884    
     64200   316.25422     -218714.67      0             -218250.82     -12.54316     
     64300   318.45084     -218720.07      0             -218253        -776.17054    
     64400   315.84754     -218725.21      0             -218261.95     -338.86885    
     64500   311.92985     -218721.85      0             -218264.33     -620.99035    
     64600   314.27096     -218722.42      0             -218261.47     -761.16565    
     64700   314.94007     -218715.86      0             -218253.94      100.94927    
     64800   318.38095     -218719.58      0             -218252.61     -497.84525    
     64900   314.44607     -218716.94      0             -218255.74     -751.88884    
     65000   315.30083     -218720.17      0             -218257.71      32.21673     
     65100   314.03504     -218721.02      0             -218260.42     -933.84767    
     65200   315.13357     -218724.63      0             -218262.42      65.00316     
     65300   314.13794     -218726.21      0             -218265.46     -264.71873    
     65400   314.31483     -218727.9       0             -218266.89      17.896974    
     65500   312.48085     -218720.08      0             -218261.76     -655.1514     
     65600   316.77245     -218719.35      0             -218254.73     -1148.6275    
     65700   315.43662     -218717.13      0             -218254.48     -770.03405    
     65800   312.99264     -218719.06      0             -218259.99     -384.79677    
     65900   311.16383     -218720.58      0             -218264.19     -745.28478    
     66000   317.84806     -218729.46      0             -218263.27     -548.77509    
     66100   314.54693     -218721.7       0             -218260.35      911.74026    
     66200   320.31661     -218726.21      0             -218256.4      -91.651153    
     66300   317.27526     -218719.33      0             -218253.98     -18.276153    
     66400   313.64342     -218717.7       0             -218257.67     -556.22532    
     66500   312.31118     -218723.59      0             -218265.52     -74.069255    
     66600   311.35134     -218724.23      0             -218267.57      64.387201    
     66700   312.69382     -218719.86      0             -218261.22     -819.32541    
     66800   318.7751      -218723.3       0             -218255.75     -134.95552    
     66900   315.11011     -218719.65      0             -218257.48     -917.87558    
     67000   315.37501     -218722.98      0             -218260.41     -296.06284    
     67100   313.57868     -218724.16      0             -218264.23     -657.01334    
     67200   307.9439      -218721.32      0             -218269.66     -658.61764    
     67300   313.02089     -218731.58      0             -218272.47     -834.11841    
     67400   314.85932     -218724.75      0             -218262.94     -415.93608    
     67500   315.89322     -218722.02      0             -218258.7      -697.42809    
     67600   313.48859     -218715.46      0             -218255.66     -1104.626     
     67700   314.93158     -218717.38      0             -218255.47     -305.71481    
     67800   311.81243     -218719.86      0             -218262.52     -88.094435    
     67900   311.77453     -218725.64      0             -218268.35      260.85857    
     68000   313.54189     -218725.55      0             -218265.67      163.8013     
     68100   314.93412     -218723.21      0             -218261.3       1741.22      
     68200   314.84607     -218721.59      0             -218259.8       86.574734    
     68300   317.65374     -218724.69      0             -218258.78      544.43469    
     68400   315.64808     -218721.95      0             -218258.98     -1013.3949    
     68500   315.21814     -218722.64      0             -218260.3       212.22886    
     68600   312.99335     -218722.36      0             -218263.29      207.09817    
     68700   313.86163     -218723.68      0             -218263.33      414.62845    
     68800   313.207       -218719.01      0             -218259.62     -560.1981     
     68900   319.25308     -218721.33      0             -218253.08     -395.63216    
     69000   317.07951     -218718.4       0             -218253.34     -349.37705    
     69100   312.22361     -218721.54      0             -218263.6      -1296.3009    
     69200   312.75038     -218725.82      0             -218267.11     -1821.5156    
     69300   313.59815     -218722.76      0             -218262.8       522.54765    
     69400   317.76938     -218723.45      0             -218257.37      557.39422    
     69500   319.10593     -218724.41      0             -218256.37     -803.92985    
     69600   315.16408     -218722.17      0             -218259.91     -407.56955    
     69700   310.61478     -218724.83      0             -218269.25     -1161.8746    
     69800   311.4626      -218730.07      0             -218273.24     -1029.5206    
     69900   314.51282     -218726.25      0             -218264.95     -300.48511    
     70000   311.52123     -218717.4       0             -218260.49     -1272.8556    
     70100   314.59162     -218719.9       0             -218258.48     -957.07428    
     70200   314.27129     -218717.97      0             -218257.03     -1562.4153    
     70300   312.45723     -218716.51      0             -218258.23     -816.17915    
     70400   314.44234     -218722.46      0             -218261.26     -700.15153    
     70500   315.26694     -218726.83      0             -218264.42     -472.70375    
     70600   312.61332     -218724.83      0             -218266.32     -282.76749    
     70700   314.22774     -218720.84      0             -218259.96     -445.50049    
     70800   314.2179      -218715.55      0             -218254.68     -511.67657    
     70900   315.65118     -218717.69      0             -218254.72     -1520.6926    
     71000   314.37068     -218722.64      0             -218261.55     -369.35242    
     71100   312.32934     -218726.12      0             -218268.02      187.73154    
     71200   313.87162     -218725.46      0             -218265.1       43.260629    
     71300   314.91631     -218722.04      0             -218260.15     -694.15595    
     71400   315.35468     -218720.16      0             -218257.63     -102.57816    
     71500   314.59057     -218719.52      0             -218258.1      -1171.0872    
     71600   313.76465     -218719.29      0             -218259.09     -1217.4813    
     71700   309.74993     -218721.34      0             -218267.02     -2131.9855    
     71800   312.19558     -218726.49      0             -218268.58     -1353.1164    
     71900   314.05954     -218722.21      0             -218261.58     -361.2026     
     72000   316.27947     -218720.95      0             -218257.06     -1070.5686    
     72100   315.01339     -218718.95      0             -218256.91      345.11307    
     72200   316.02266     -218722.23      0             -218258.72      24.063828    
     72300   310.42497     -218723.12      0             -218267.81     -1141.0124    
     72400   311.59013     -218725.44      0             -218268.42     -313.48108    
     72500   311.52932     -218719.8       0             -218262.88      542.63075    
     72600   314.801       -218721.43      0             -218259.7      -819.56694    
     72700   311.57078     -218716.51      0             -218259.53     -398.84163    
     72800   314.61979     -218719.28      0             -218257.82     -304.71194    
     72900   315.83385     -218719.44      0             -218256.2       48.114289    
     73000   317.541       -218721.35      0             -218255.61      132.15632    
     73100   310.54759     -218717.03      0             -218261.55     -190.17336    
     73200   314.71102     -218725.19      0             -218263.6      -657.41627    
     73300   313.92889     -218723.34      0             -218262.9      -718.68394    
     73400   316.73183     -218720.25      0             -218255.69     -1165.0728    
     73500   319.70737     -218719.98      0             -218251.06     -987.94875    
     73600   317.26159     -218720.6       0             -218255.26     -561.03094    
     73700   314.31244     -218721.31      0             -218260.3      -17.179905    
     73800   313.49679     -218721.49      0             -218261.68      112.31709    
     73900   314.9781      -218721.83      0             -218259.84      365.756      
     74000   315.51149     -218720.86      0             -218258.1       306.20114    
     74100   315.82657     -218721.19      0             -218257.97      196.41049    
     74200   311.33139     -218719.9       0             -218263.27      465.15834    
     74300   311.66817     -218724.96      0             -218267.83      30.031488    
     74400   311.22978     -218721.59      0             -218265.1      -1016.5466    
     74500   317.51281     -218722.51      0             -218256.81     -920.74007    
     74600   317.73658     -218722.39      0             -218256.36     -796.93069    
     74700   314.73106     -218719.38      0             -218257.76     -768.77283    
     74800   312.13439     -218719.6       0             -218261.78     -844.91318    
     74900   308.32215     -218722.91      0             -218270.69     -825.69663    
     75000   309.95107     -218726.32      0             -218271.71     -394.85354    
     75100   314.14271     -218725.81      0             -218265.05     -961.89881    
     75200   316.6023      -218726.45      0             -218262.08     -2.7864725    
     75300   317.43332     -218724.31      0             -218258.73     -661.61972    
     75400   317.22603     -218721.67      0             -218256.39      739.79319    
     75500   314.39218     -218719.55      0             -218258.43      530.46904    
     75600   312.88055     -218725.43      0             -218266.53     -58.232211    
     75700   312.48118     -218726.11      0             -218267.79      661.11455    
     75800   316.87692     -218726.79      0             -218262.02      115.00958    
     75900   317.69348     -218721.74      0             -218255.77     -374.35399    
     76000   314.40592     -218718.59      0             -218257.44     -431.79902    
     76100   315.83941     -218724.08      0             -218260.84     -187.72916    
     76200   314.59901     -218723.32      0             -218261.89     -1262.5609    
     76300   315.42129     -218722.2       0             -218259.56     -1013.6523    
     76400   315.61986     -218715.9       0             -218252.97      32.138076    
     76500   319.10467     -218718.91      0             -218250.87      81.307742    
     76600   312.80584     -218718.09      0             -218259.29     -637.56551    
     76700   311.35767     -218720.17      0             -218263.5      -30.267671    
     76800   316.02367     -218727.62      0             -218264.1       513.24321    
     76900   315.32207     -218723.99      0             -218261.51      665.71369    
     77000   318.30224     -218720.54      0             -218253.68     -336.38041    
     77100   321.01996     -218723.37      0             -218252.53     -525.03419    
     77200   313.91188     -218722.28      0             -218261.86      779.7404     
     77300   313.67159     -218725.75      0             -218265.69     -159.7854     
     77400   313.48801     -218722.24      0             -218262.44     -135.04262    
     77500   317.479       -218723.42      0             -218257.77     -92.604719    
     77600   317.41721     -218719.85      0             -218254.29     -717.45877    
     77700   317.05788     -218720.89      0             -218255.85      85.832592    
     77800   313.21352     -218724.82      0             -218265.43      131.48639    
     77900   313.14231     -218725.81      0             -218266.52      85.241319    
     78000   318.77632     -218728.4       0             -218260.84     -482.86457    
     78100   318.34898     -218724.81      0             -218257.89     -814.14559    
     78200   317.95085     -218724.77      0             -218258.43     -199.51102    
     78300   314.46631     -218721.11      0             -218259.87     -21.22701     
     78400   315.20111     -218723.4       0             -218261.09      484.13751    
     78500   315.78114     -218725.37      0             -218262.21      639.7774     
     78600   315.12098     -218725.51      0             -218263.32     -120.48296    
     78700   312.83255     -218723.25      0             -218264.42     -330.53526    
     78800   314.65593     -218725.96      0             -218264.45     -368.93614    
     78900   312.08541     -218718.06      0             -218260.32     -555.13096    
     79000   318.77449     -218722.75      0             -218255.2      -371.02737    
     79100   314.90604     -218717.9       0             -218256.02     -1000.8189    
     79200   312.3737      -218722.86      0             -218264.7      -1281.1669    
     79300   312.68869     -218727.48      0             -218268.86     -1810.7079    
     79400   310.55615     -218721.53      0             -218266.04     -317.69518    
     79500   314.25758     -218721.02      0             -218260.09     -42.189529    
     79600   315.96031     -218722.8       0             -218259.38     -364.20013    
     79700   312.23765     -218718.69      0             -218260.73     -303.05787    
     79800   316.08111     -218724.6       0             -218261        -462.75957    
     79900   313.4976      -218726.06      0             -218266.24      39.582405    
     80000   311.32783     -218728.84      0             -218272.21     -357.81505    
     80100   313.23519     -218726.96      0             -218267.54     -1694.3019    
     80200   312.16496     -218718.29      0             -218260.43     -1820.0427    
     80300   311.97824     -218717.76      0             -218260.17     -1134.7929    
     80400   313.53907     -218720.53      0             -218260.65     -366.33918    
     80500   313.85972     -218721.62      0             -218261.28     -1116.2744    
     80600   315.41287     -218724.52      0             -218261.9      -302.24548    
     80700   315.53125     -218724.29      0             -218261.49      292.62058    
     80800   314.77302     -218722.89      0             -218261.2      -492.07173    
     80900   315.83598     -218722.31      0             -218259.07     -335.73655    
     81000   317.30901     -218722.73      0             -218257.33      271.52324    
     81100   313.87495     -218720.61      0             -218260.24      415.36048    
     81200   314.77827     -218728.77      0             -218267.08     -138.84224    
     81300   315.24062     -218728.84      0             -218266.48     -113.03757    
     81400   318.29019     -218726.34      0             -218259.5      -606.40487    
     81500   313.05899     -218712.09      0             -218252.92     -537.01229    
     81600   316.27396     -218718.12      0             -218254.24     -665.52181    
     81700   314.77317     -218720.25      0             -218258.57     -612.00876    
     81800   314.22029     -218723.08      0             -218262.21     -1208.9519    
     81900   310.5118      -218721.42      0             -218265.98     -770.86871    
     82000   317.73345     -218727.88      0             -218261.86     -565.16645    
     82100   315.86393     -218715.92      0             -218252.64     -119.02357    
     82200   317.78771     -218720.51      0             -218254.41     -1127.0815    
     82300   311.92353     -218719.2       0             -218261.69     -1513.7874    
     82400   315.67904     -218727.69      0             -218264.68      141.81018    
     82500   313.7664      -218724.7       0             -218264.5      -705.95362    
     82600   318.23816     -218726.83      0             -218260.06     -1460.9691    
     82700   320.42173     -218723.59      0             -218253.62     -1065.9485    
     82800   322.45785     -218718.47      0             -218245.52     -570.82464    
     82900   318.69446     -218718.77      0             -218251.34     -1276.366     
     83000   310.93534     -218713.32      0             -218257.26     -1265.0723    
     83100   313.20873     -218720.9       0             -218261.51     -217.13346    
     83200   311.14566     -218721.16      0             -218264.8       579.0056     
     83300   312.90968     -218725.43      0             -218266.48     -257.36837    
     83400   311.7446      -218722.83      0             -218265.59     -759.55318    
     83500   314.6898      -218719.58      0             -218258.02     -187.82254    
     83600   316.99703     -218719.13      0             -218254.19     -318.97943    
     83700   313.77282     -218718.53      0             -218258.31     -1031.8365    
     83800   315.40294     -218727.72      0             -218265.12     -862.42927    
     83900   316.21921     -218729.76      0             -218265.95     -277.58427    
     84000   315.57819     -218724.79      0             -218261.92     -863.67282    
     84100   313.72884     -218718.98      0             -218258.83     -1630.9472    
     84200   319.02774     -218722.53      0             -218254.6      -886.639      
     84300   321.13308     -218722.21      0             -218251.2      -564.93352    
     84400   314.1629      -218716.43      0             -218255.64     -675.99745    
     84500   316.8531      -218728.48      0             -218263.75     -514.91075    
     84600   313.15473     -218724.88      0             -218265.57     -316.91457    
     84700   319.5455      -218730.73      0             -218262.04      498.6356     
     84800   319.7446      -218724.27      0             -218255.3      -361.64927    
     84900   318.55529     -218720.61      0             -218253.38     -436.941      
     85000   312.79898     -218721.66      0             -218262.88      347.62603    
     85100   313.571       -218728.36      0             -218268.44     -274.97655    
     85200   315.08999     -218728.53      0             -218266.39     -1078.5615    
     85300   314.44652     -218720.78      0             -218259.58     -664.44662    
     85400   314.57071     -218718.52      0             -218257.13     -209.63094    
     85500   315.84348     -218722.34      0             -218259.09     -821.70987    
     85600   313.89535     -218729.04      0             -218268.64      391.86765    
     85700   311.25366     -218728.78      0             -218272.26      271.0813     
     85800   316.52846     -218731.54      0             -218267.28      474.93429    
     85900   314.10187     -218722.43      0             -218261.73      227.5986     
     86000   317.24292     -218723.28      0             -218257.97     -1080.899     
     86100   315.24012     -218720         0             -218257.64     -1059.8288    
     86200   313.57073     -218725.48      0             -218265.56     -858.801      
     86300   311.20948     -218727.83      0             -218271.37     -859.82659    
     86400   314.25836     -218728.29      0             -218267.36     -601.10087    
     86500   314.107       -218722.7       0             -218262        -739.30719    
     86600   318.79305     -218726.05      0             -218258.47     -685.21569    
     86700   311.94907     -218717.67      0             -218260.13     -941.15152    
     86800   313.55175     -218722.81      0             -218262.92     -469.34443    
     86900   314.71557     -218730.67      0             -218269.07      600.01077    
     87000   307.97294     -218727.12      0             -218275.41     -467.19422    
     87100   312.66185     -218726.8       0             -218268.22     -371.90796    
     87200   316.06962     -218726.29      0             -218262.71     -387.6035     
     87300   314.00831     -218720.56      0             -218260        -83.910742    
     87400   315.58926     -218718.95      0             -218256.07      153.24388    
     87500   319.28592     -218720.96      0             -218252.66     -655.6237     
     87600   318.39283     -218720.89      0             -218253.9      -1181.5076    
     87700   313.58637     -218723.15      0             -218263.21     -1459.0858    
     87800   314.31977     -218726.05      0             -218265.03     -401.43724    
     87900   314.56871     -218724.32      0             -218262.94      267.04197    
     88000   320.85173     -218726.74      0             -218256.15     -746.74227    
     88100   319.48924     -218722.7       0             -218254.1       663.58509    
     88200   315.51663     -218722.93      0             -218260.16      920.91916    
     88300   311.14992     -218723.96      0             -218267.59      584.25856    
     88400   313.64978     -218726.65      0             -218266.62      464.75325    
     88500   315.36606     -218722.75      0             -218260.2       229.94143    
     88600   315.06974     -218718.31      0             -218256.19     -58.455387    
     88700   316.56697     -218720.92      0             -218256.6      -281.2691     
     88800   311.85382     -218721.23      0             -218263.83     -1199.7906    
     88900   315.51929     -218731.65      0             -218268.88     -1567.2942    
     89000   315.27544     -218728.28      0             -218265.86      209.36111    
     89100   316.66181     -218725.13      0             -218260.67     -1444.1538    
     89200   315.49362     -218719.89      0             -218257.15      51.688409    
     89300   313.75287     -218718.27      0             -218258.09      217.29419    
     89400   311.45614     -218724.09      0             -218267.27      229.80058    
     89500   313.26143     -218729.24      0             -218269.77      227.62791    
     89600   312.61527     -218725.09      0             -218266.57      454.35094    
     89700   312.5058      -218720.09      0             -218261.74      130.24928    
     89800   317.68972     -218726.62      0             -218260.66     -439.89248    
     89900   311.78357     -218718.9       0             -218261.6       374.57517    
     90000   316.31394     -218725.46      0             -218261.52     -1115.3238    
     90100   313.59155     -218720.42      0             -218260.47     -1686.4082    
     90200   317.44251     -218723.89      0             -218258.29     -1119.7475    
     90300   315.72398     -218722.4       0             -218259.33     -346.26515    
     90400   311.49234     -218720.55      0             -218263.68     -772.95315    
     90500   310.83114     -218724.02      0             -218268.12     -1004.8563    
     90600   312.63352     -218726.82      0             -218268.28     -1230.3001    
     90700   313.49344     -218718.54      0             -218258.73     -630.78277    
     90800   317.65016     -218722.1       0             -218256.2      -1205.7904    
     90900   315.71257     -218722.48      0             -218259.42     -693.44727    
     91000   317.06689     -218731.11      0             -218266.07      65.586009    
     91100   315.58459     -218731.43      0             -218268.55      687.17568    
     91200   311.55526     -218724.24      0             -218267.27      204.69809    
     91300   312.8677      -218723.64      0             -218264.75      49.210412    
     91400   313.38902     -218720.27      0             -218260.61     -809.03781    
     91500   318.23867     -218723.92      0             -218257.16     -624.63654    
     91600   313.21729     -218716.14      0             -218256.74     -939.30607    
     91700   312.38165     -218723.5       0             -218265.33     -1463.7586    
     91800   309.68806     -218722.92      0             -218268.7      -903.72118    
     91900   312.76567     -218723.86      0             -218265.12     -1642.0532    
     92000   317.68702     -218723.91      0             -218257.95     -644.56044    
     92100   318.72737     -218725.96      0             -218258.48     -5.9897089    
     92200   316.29259     -218726.01      0             -218262.1       58.920961    
     92300   315.27756     -218727.86      0             -218265.44     -692.29888    
     92400   313.54207     -218727.5       0             -218267.63     -57.928248    
     92500   313.69016     -218726.11      0             -218266.02     -723.72863    
     92600   314.66186     -218719.95      0             -218258.43     -585.40612    
     92700   321.05422     -218726.64      0             -218255.75      191.65       
     92800   315.55097     -218723.9       0             -218261.08     -482.63875    
     92900   315.29194     -218729.5       0             -218267.05      349.45504    
     93000   315.39498     -218729.35      0             -218266.76     -1032.6729    
     93100   316.59483     -218728.19      0             -218263.84     -137.49473    
     93200   315.07053     -218725.76      0             -218263.64      99.08551     
     93300   316.86693     -218728.06      0             -218263.31     -322.17556    
     93400   315.60755     -218723.93      0             -218261.02     -627.32554    
     93500   316.73612     -218717.78      0             -218253.22      160.32408    
     93600   320.22856     -218719.27      0             -218249.59     -501.6595     
     93700   315.97218     -218721.57      0             -218258.13     -85.56296     
     93800   314.6443      -218723.26      0             -218261.77      227.67769    
     93900   313.12259     -218723.31      0             -218264.05      320.04165    
     94000   315.03377     -218728.78      0             -218266.71      94.598748    
     94100   309.00395     -218723.12      0             -218269.89     -24.697937    
     94200   313.84193     -218729.22      0             -218268.91     -361.9433     
     94300   315.46826     -218723.18      0             -218260.47     -217.37212    
     94400   316.06442     -218720.55      0             -218256.97     -367.10397    
     94500   315.23638     -218721.48      0             -218259.12     -249.96254    
     94600   313.50403     -218726.15      0             -218266.33     -488.69495    
     94700   313.85645     -218730.19      0             -218269.86     -795.11806    
     94800   313.76636     -218728.31      0             -218268.11     -430.54061    
     94900   318.22796     -218730.94      0             -218264.19      54.001157    
     95000   315.5238      -218724.11      0             -218261.33      274.3891     
     95100   315.91876     -218722.13      0             -218258.76      874.06769    
     95200   320.56832     -218725.17      0             -218254.99      725.51577    
     95300   317.74548     -218724.56      0             -218258.52     -317.75859    
     95400   310.96051     -218722.08      0             -218265.99     -846.13112    
     95500   312.00168     -218725.19      0             -218267.57     -905.52867    
     95600   313.31021     -218723         0             -218263.46     -114.66928    
     95700   316.74832     -218721.9       0             -218257.32     -89.413766    
     95800   321.05566     -218721.09      0             -218250.2      -749.44306    
     95900   320.34501     -218716.68      0             -218246.82     -430.66381    
     96000   316.41494     -218721.34      0             -218257.25     -536.91089    
     96100   312.01588     -218720.86      0             -218263.22     -555.15598    
     96200   313.83853     -218727.95      0             -218267.64     -695.85218    
     96300   313.8811      -218729.28      0             -218268.9       271.88674    
     96400   312.37851     -218722.38      0             -218264.21     -679.86466    
     96500   319.14436     -218725.92      0             -218257.83     -410.01885    
     96600   314.93535     -218720.47      0             -218258.55     -534.11795    
     96700   312.88434     -218721.44      0             -218262.53     -742.63859    
     96800   313.61929     -218727.01      0             -218267.02      119.23875    
     96900   311.40058     -218723.8       0             -218267.07     -130.83609    
     97000   314.73939     -218725.67      0             -218264.04     -461.37106    
     97100   313.52113     -218719.35      0             -218259.5      -1243.4939    
     97200   315.31539     -218721.24      0             -218258.76     -679.71655    
     97300   310.24015     -218720.7       0             -218265.67     -168.63225    
     97400   309.82276     -218724.85      0             -218270.43     -3.6898922    
     97500   310.86337     -218723.97      0             -218268.02     -1098.6664    
     97600   316.95585     -218725.83      0             -218260.94      239.31816    
     97700   321.00648     -218730.87      0             -218260.04      36.607841    
     97800   313.80534     -218723.15      0             -218262.89      366.5635     
     97900   317.21793     -218730.17      0             -218264.9      -404.49982    
     98000   316.61802     -218732.25      0             -218267.86     -610.38735    
     98100   311.86998     -218730.51      0             -218273.09     -705.28721    
     98200   313.46784     -218731.3       0             -218271.53      185.41108    
     98300   312.46228     -218720.59      0             -218262.3       484.90454    
     98400   315.3749      -218722.05      0             -218259.48      76.792256    
     98500   316.2945      -218724.11      0             -218260.19     -259.88588    
     98600   314.364       -218726.48      0             -218265.4       30.161484    
     98700   311.50378     -218730.05      0             -218273.16      792.83525    
     98800   314.20441     -218733.25      0             -218272.4       212.34614    
     98900   313.80549     -218727.24      0             -218266.97     -272.84242    
     99000   317.20785     -218730.09      0             -218264.84     -1036.05      
     99100   318.82709     -218729.02      0             -218261.39     -412.50484    
     99200   315.68441     -218722.4       0             -218259.38      813.42475    
     99300   318.63775     -218725.42      0             -218258.07      493.0563     
     99400   315.81739     -218725.63      0             -218262.42     -439.45426    
     99500   314.2149      -218730.19      0             -218269.32     -583.01607    
     99600   314.30873     -218730.07      0             -218269.07     -130.3968     
     99700   314.11669     -218723.48      0             -218262.76     -621.2701     
     99800   316.05731     -218721.41      0             -218257.84     -535.31757    
     99900   317.02536     -218724.22      0             -218259.24     -833.18255    
    100000   316.46632     -218726.19      0             -218262.02     -730.76887    
    100100   315.64543     -218728.38      0             -218265.42     -321.27366    
    100200   314.94405     -218730.63      0             -218268.7      -68.543455    
    100300   312.32488     -218727.48      0             -218269.39      186.26597    
    100400   314.53332     -218724.97      0             -218263.64     -312.61182    
    100500   318.42121     -218725.24      0             -218258.21     -403.7311     
    100600   318.16558     -218725.76      0             -218259.1       1198.6213    
    100700   314.2005      -218727.23      0             -218266.38     -163.01487    
    100800   310.30547     -218724.7       0             -218269.57     -852.1848     
    100900   315.90527     -218730.59      0             -218267.25     -559.73533    
    101000   314.09078     -218724.92      0             -218264.24      832.99938    
    101100   314.59989     -218723.83      0             -218262.4       357.70899    
    101200   318.36331     -218727.6       0             -218260.65     -640.93232    
    101300   318.43694     -218724.49      0             -218257.44     -1092.1929    
    101400   315.1647      -218721.22      0             -218258.96     -788.67023    
    101500   312.14299     -218722.5       0             -218264.67     -1680.4204    
    101600   312.9809      -218727.92      0             -218268.86     -1193.9065    
    101700   311.59186     -218725.27      0             -218268.26     -204.01582    
    101800   315.69448     -218720.75      0             -218257.72     -70.647336    
    101900   317.61044     -218722.75      0             -218256.9       255.17542    
    102000   313.9276      -218722.95      0             -218262.5       147.79439    
    102100   314.6423      -218727.83      0             -218266.34      562.06533    
    102200   313.22989     -218725.7       0             -218266.28     -802.96301    
    102300   314.27096     -218725.43      0             -218264.49     -463.20317    
    102400   314.37968     -218722.6       0             -218261.49     -569.46292    
    102500   317.65147     -218716.39      0             -218250.48     -539.31656    
    102600   319.97547     -218722.59      0             -218253.28     -1069.6703    
    102700   315.53789     -218723.87      0             -218261.06     -351.15838    
    102800   315.9415      -218728.26      0             -218264.87     -702.83186    
    102900   314.1957      -218726.47      0             -218265.63     -1507.9724    
    103000   314.11691     -218724.42      0             -218263.7      -1015.8434    
    103100   317.25407     -218721.44      0             -218256.12     -502.6178     
    103200   321.02824     -218724.53      0             -218253.68     -451.49921    
    103300   317.23245     -218726.58      0             -218261.29     -674.75408    
    103400   314.34088     -218726.32      0             -218265.27     -262.88616    
    103500   311.88729     -218722.68      0             -218265.23     -932.61564    
    103600   312.3269      -218721.24      0             -218263.14     -1088.2939    
    103700   314.84103     -218720.52      0             -218258.74     -771.33328    
    103800   317.82489     -218720.05      0             -218253.89     -175.35165    
    103900   319.7747      -218724.26      0             -218255.24     -712.348      
    104000   315.73412     -218727.59      0             -218264.5      -363.63169    
    104100   315.75974     -218730.22      0             -218267.1      -78.914963    
    104200   311.21957     -218722.56      0             -218266.09      126.17546    
    104300   316.96794     -218727.15      0             -218262.25     -1473.0804    
    104400   318.16325     -218720.61      0             -218253.95     -1206.8595    
    104500   318.9433      -218722.32      0             -218254.52     -878.5168     
    104600   313.12999     -218720.69      0             -218261.41     -485.00672    
    104700   314.72948     -218725.43      0             -218263.82     -520.7381     
    104800   316.37147     -218728.18      0             -218264.16     -1093.4734    
    104900   316.2141      -218729.32      0             -218265.52     -836.40311    
    105000   312.777       -218723.88      0             -218265.12     -1126.206     
    105100   314.42807     -218722.55      0             -218261.38     -1110.1813    
    105200   317.77337     -218722.48      0             -218256.39     -838.62691    
    105300   313.82787     -218718.18      0             -218257.89     -480.45823    
    105400   314.80672     -218729.25      0             -218267.52     -512.91523    
    105500   313.37253     -218728.41      0             -218268.78      56.49764     
    105600   313.83356     -218725.93      0             -218265.63      21.919738    
    105700   313.73103     -218720.68      0             -218260.53     -314.4063     
    105800   317.31048     -218721.53      0             -218256.12     -1207.3753    
    105900   318.71846     -218718.95      0             -218251.49      442.62376    
    106000   318.88257     -218720.99      0             -218253.28      449.21349    
    106100   311.82426     -218719.98      0             -218262.62     -1408.4205    
    106200   313.15482     -218725.79      0             -218266.48     -632.40357    
    106300   312.39185     -218724.91      0             -218266.72     -64.652447    
    106400   315.08636     -218723.86      0             -218261.72     -102.17264    
    106500   317.6225      -218722.02      0             -218256.16     -1123.1888    
    106600   319.41385     -218723.64      0             -218255.15     -222.68611    
    106700   313.33293     -218725.54      0             -218265.97     -588.44076    
    106800   313.96013     -218728.73      0             -218268.24     -604.78037    
    106900   316.13012     -218728.29      0             -218264.62     -236.46422    
    107000   317.54596     -218724.44      0             -218258.69     -1016.3277    
    107100   317.19644     -218723.83      0             -218258.59      689.86566    
    107200   314.87548     -218730.54      0             -218268.71     -561.95801    
    107300   312.326       -218729.1       0             -218271        -1033.6691    
    107400   314.26826     -218726.9       0             -218265.95      188.93473    
    107500   317.44766     -218725.86      0             -218260.26      130.92458    
    107600   314.53266     -218721.23      0             -218259.9       910.34421    
    107700   318.1455      -218728.91      0             -218262.28     -897.18399    
    107800   310.85013     -218728.96      0             -218273.04     -480.90235    
    107900   313.2448      -218733.05      0             -218273.6      -812.50043    
    108000   315.54903     -218729.82      0             -218267        -1160.1797    
    108100   314.22101     -218723.43      0             -218262.56     -144.93991    
    108200   315.24084     -218722.8       0             -218260.43      270.02597    
    108300   315.82253     -218725.55      0             -218262.33      370.51567    
    108400   315.20996     -218734.27      0             -218271.95      877.47659    
    108500   311.95476     -218730.87      0             -218273.32     -292.34653    
    108600   311.93381     -218726.18      0             -218268.66     -273.65267    
    108700   313.35576     -218724.05      0             -218264.45     -662.84763    
    108800   317.69353     -218727.77      0             -218261.81     -56.063629    
    108900   316.46768     -218726.43      0             -218262.26     -1256.7496    
    109000   317.95308     -218731.96      0             -218265.61     -154.72956    
    109100   310.5143      -218728.48      0             -218273.05     -466.74684    
    109200   312.56415     -218729.76      0             -218271.31     -390.5661     
    109300   314.68553     -218725.51      0             -218263.95      224.47815    
    109400   316.47554     -218725.1       0             -218260.92     -148.37344    
    109500   314.45345     -218722.69      0             -218261.47     -701.67366    
    109600   316.15209     -218727.94      0             -218264.23      576.43145    
    109700   311.0301      -218729.17      0             -218272.98     -338.32058    
    109800   310.92702     -218732.11      0             -218276.07     -282.28535    
    109900   313.9847      -218729.91      0             -218269.38      892.31104    
    110000   313.9425      -218726.76      0             -218266.3       149.00217    
    110100   317.34        -218729.27      0             -218263.82      131.95586    
    110200   316.88556     -218725.49      0             -218260.71     -1413.1534    
    110300   317.16926     -218723.11      0             -218257.91     -1138.4655    
    110400   314.7538      -218724.33      0             -218262.68     -1347.2861    
    110500   314.19268     -218730.87      0             -218270.04     -640.39189    
    110600   316.21538     -218733.67      0             -218269.87     -63.183298    
    110700   315.47925     -218729.23      0             -218266.51     -335.84058    
    110800   311.08665     -218719.88      0             -218263.6      -130.75152    
    110900   313.92581     -218722.29      0             -218261.85     -204.47432    
    111000   313.5116      -218722.9       0             -218263.07     -275.43505    
    111100   312.9554      -218726.29      0             -218267.28      683.48728    
    111200   311.09451     -218731.45      0             -218275.16     -843.59547    
    111300   314.82531     -218734.04      0             -218272.29     -685.99226    
    111400   314.8952      -218727.05      0             -218265.19     -810.43951    
    111500   316.04958     -218726.63      0             -218263.07     -149.5326     
    111600   316.31459     -218725.55      0             -218261.61      166.15964    
    111700   313.63949     -218722.45      0             -218262.43     -129.5624     
    111800   318.79938     -218735.2       0             -218267.61      131.5521     
    111900   314.33362     -218733.29      0             -218272.25      748.17968    
    112000   313.85664     -218729         0             -218268.66      133.17524    
    112100   320.02107     -218728.41      0             -218259.03     -498.09467    
    112200   317.95913     -218724.84      0             -218258.48     -467.54029    
    112300   313.59925     -218723.22      0             -218263.26     -145.6931     
    112400   313.9884      -218728.45      0             -218267.92      407.05754    
    112500   310.0524      -218722.97      0             -218268.22      115.83833    
    112600   316.35781     -218722.11      0             -218258.1      -135.0703     
    112700   316.66005     -218719.12      0             -218254.67     -246.87588    
    112800   318.68912     -218726.99      0             -218259.56      770.61063    
    112900   313.14617     -218724.15      0             -218264.85     -950.76609    
    113000   313.35548     -218726.52      0             -218266.92     -986.76901    
    113100   315.43598     -218727.53      0             -218264.87      484.0161     
    113200   314.99498     -218723.96      0             -218261.95     -207.79056    
    113300   320.82943     -218721.71      0             -218251.15     -841.57469    
    113400   316.56178     -218717.32      0             -218253.01      93.009815    
    113500   316.48054     -218725.04      0             -218260.86     -889.25209    
    113600   315.74453     -218727.77      0             -218264.66     -985.2792     
    113700   312.46759     -218723.95      0             -218265.65     -1430.1288    
    113800   314.72902     -218724.09      0             -218262.47     -1305.4116    
    113900   318.0375      -218720.76      0             -218254.29     -880.72586    
    114000   318.11607     -218720.46      0             -218253.87      695.86637    
    114100   315.88433     -218724.78      0             -218261.47      379.37749    
    114200   313.91261     -218725.22      0             -218264.8       882.6608     
    114300   316.78603     -218728.8       0             -218264.16     -391.84592    
    114400   316.78481     -218728.94      0             -218264.31     -644.6784     
    114500   313.18965     -218723.14      0             -218263.78     -518.85542    
    114600   311.98699     -218719.73      0             -218262.13     -60.77036     
    114700   314.65044     -218721.7       0             -218260.2       9.4485371    
    114800   313.69221     -218720.9       0             -218260.81      300.49266    
    114900   314.3963      -218726.99      0             -218265.86     -97.486695    
    115000   311.79154     -218728.11      0             -218270.8      -915.11964    
    115100   313.9848      -218731.42      0             -218270.89     -331.85389    
    115200   316.8324      -218725.08      0             -218260.38     -133.25851    
    115300   316.53957     -218721.65      0             -218257.37     -845.11525    
    115400   314.49424     -218722.21      0             -218260.94     -732.51759    
    115500   311.89571     -218725.05      0             -218267.59     -654.34841    
    115600   312.28103     -218727.8       0             -218269.77      1098.6432    
    115700   319.80773     -218735.9       0             -218266.83     -341.57485    
    115800   316.04668     -218728.51      0             -218264.96     -1375.6713    
    115900   315.20111     -218725.19      0             -218262.88     -775.07687    
    116000   313.70843     -218720.79      0             -218260.67     -358.92614    
    116100   317.07714     -218718.8       0             -218253.74     -282.2682     
    116200   322.05585     -218724.82      0             -218252.46     -1051.7605    
    116300   316.52536     -218725.09      0             -218260.84     -436.69415    
    116400   313.47963     -218725.18      0             -218265.4      -932.299      
    116500   310.79158     -218721.9       0             -218266.06      52.59369     
    116600   313.39473     -218723.15      0             -218263.49     -545.77194    
    116700   321.87205     -218728.33      0             -218256.23     -54.68025     
    116800   318.86188     -218720.56      0             -218252.88      233.54047    
    116900   314.76187     -218722.67      0             -218261.01     -605.57092    
    117000   310.99005     -218722.14      0             -218266         892.76306    
    117100   313.95945     -218726.03      0             -218265.55     -212.86296    
    117200   314.65302     -218723.83      0             -218262.32     -597.12319    
    117300   316.26242     -218722.75      0             -218258.88      263.48276    
    117400   316.48239     -218722         0             -218257.81     -468.02498    
    117500   317.83072     -218729.16      0             -218262.99     -1187.2171    
    117600   313.35005     -218728.57      0             -218268.97     -942.49574    
    117700   313.54318     -218729.78      0             -218269.9      -1892.5402    
    117800   314.07164     -218723         0             -218262.34     -1014.2725    
    117900   316.64416     -218723.95      0             -218259.53     -607.82842    
    118000   315.91281     -218723.97      0             -218260.62     -834.98446    
    118100   316.24833     -218728.46      0             -218264.62      14.773147    
    118200   309.90818     -218724.36      0             -218269.81      282.01264    
    118300   311.19632     -218729.78      0             -218273.34      353.66159    
    118400   312.35749     -218728.72      0             -218270.58     -284.36654    
    118500   318.21068     -218728.69      0             -218261.96     -235.09281    
    118600   318.90294     -218726.97      0             -218259.23      134.39571    
    118700   318.39259     -218726.83      0             -218259.84     -798.82594    
    118800   314.04407     -218727.48      0             -218266.87     -111.09497    
    118900   311.13286     -218727.58      0             -218271.24     -55.53193     
    119000   309.9898      -218722.81      0             -218268.14     -378.83448    
    119100   315.41076     -218726.31      0             -218263.69     -666.2394     
    119200   314.72558     -218724.39      0             -218262.78     -279.81399    
    119300   317.98177     -218729.08      0             -218262.69      1136.6184    
    119400   313.55291     -218724.65      0             -218264.76      495.38588    
    119500   314.55476     -218732.43      0             -218271.06     -233.09514    
    119600   312.06686     -218730.95      0             -218273.24     -456.17517    
    119700   313.67072     -218725.95      0             -218265.88      207.68708    
    119800   318.37356     -218728.39      0             -218261.43      1649.1991    
    119900   310.64731     -218717.18      0             -218261.55      425.33447    
    120000   319.15673     -218730.12      0             -218262        -570.61957    
    120100   313.49854     -218726.1       0             -218266.28     -393.86964    
    120200   313.73551     -218732.96      0             -218272.8       370.61117    
    120300   314.46936     -218733.65      0             -218272.41     -1269.2561    
    120400   316.15359     -218726.66      0             -218262.95      270.09939    
    120500   314.56145     -218722.15      0             -218260.78     -417.64523    
    120600   316.85366     -218725.92      0             -218261.19     -103.09627    
    120700   315.06961     -218726.77      0             -218264.65     -244.85336    
    120800   315.38104     -218733.99      0             -218271.41     -526.77321    
    120900   311.82622     -218731.78      0             -218274.42     -518.96476    
    121000   314.90605     -218725.96      0             -218264.08     -522.88819    
    121100   314.64182     -218721.02      0             -218259.53     -1237.5468    
    121200   317.58711     -218726.36      0             -218260.55     -744.39218    
    121300   313.3935      -218725.16      0             -218265.5       301.75857    
    121400   312.64258     -218727.82      0             -218269.26     -267.03556    
    121500   316.79853     -218732.25      0             -218267.6       618.93536    
    121600   317.84398     -218724.72      0             -218258.53      264.98337    
    121700   316.19218     -218721.07      0             -218257.3      -583.987      
    121800   314.76639     -218724.63      0             -218262.96      465.74116    
    121900   315.29262     -218728.7       0             -218266.25     -1307.8191    
    122000   314.60644     -218726.65      0             -218265.21     -357.0339     
    122100   312.56888     -218722.66      0             -218264.22     -772.98666    
    122200   315.60168     -218725.69      0             -218262.8      -404.63443    
    122300   313.22538     -218722.16      0             -218262.75     -854.24744    
    122400   316.39335     -218727.48      0             -218263.42     -1170.7837    
    122500   313.77243     -218728.32      0             -218268.1      -950.52279    
    122600   310.1617      -218728.99      0             -218274.07     -1137.3386    
    122700   315.01791     -218731.58      0             -218269.54      477.39128    
    122800   316.28703     -218726.4       0             -218262.5      -122.60097    
    122900   315.8971      -218723.49      0             -218260.15      47.813974    
    123000   316.80446     -218726.14      0             -218261.48     -412.52366    
    123100   310.92198     -218723.3       0             -218267.26     -1105.8289    
    123200   310.65584     -218730.28      0             -218274.64     -212.61137    
    123300   314.64002     -218733.19      0             -218271.71      95.887522    
    123400   316.55275     -218730.08      0             -218265.78     -811.63534    
    123500   315.17256     -218725.66      0             -218263.39     -328.18278    
    123600   314.20599     -218722.58      0             -218261.73     -263.40453    
    123700   321.04669     -218732.01      0             -218261.12     -226.76373    
    123800   317.27898     -218726.43      0             -218261.07     -859.67463    
    123900   312.68634     -218722.93      0             -218264.31     -281.96898    
    124000   314.43176     -218729.87      0             -218268.69     -762.58841    
    124100   309.28026     -218724.26      0             -218270.64     -694.67814    
    124200   315.10931     -218726.18      0             -218264         806.07062    
    124300   318.48013     -218725.5       0             -218258.38      150.49844    
    124400   316.51423     -218724.25      0             -218260.01      60.810667    
    124500   314.04509     -218726.24      0             -218265.62     -443.26121    
    124600   313.9357      -218730.8       0             -218270.35     -509.41999    
    124700   315.22814     -218732.39      0             -218270.04     -855.91613    
    124800   315.7629      -218721.03      0             -218257.89     -546.11015    
    124900   318.26149     -218723.02      0             -218256.22     -84.566993    
    125000   314.88981     -218723.46      0             -218261.6      -1229.258     
    125100   316.2824      -218731.11      0             -218267.21     -1130.2833    
    125200   312.91828     -218727.06      0             -218268.1      -924.58768    
    125300   312.25635     -218719.76      0             -218261.76     -853.70688    
    125400   314.58831     -218716.73      0             -218255.32     -107.33801    
    125500   316.04968     -218721.97      0             -218258.42     -959.92362    
    125600   311.87919     -218721.7       0             -218264.26     -311.81684    
    125700   317.40542     -218732.14      0             -218266.6      -233.34649    
    125800   314.74413     -218730.16      0             -218268.52     -199.74148    
    125900   315.6565      -218726.83      0             -218263.85     -52.85354     
    126000   320.6534      -218727.67      0             -218257.36     -846.27219    
    126100   316.64833     -218722.61      0             -218258.17     -520.44723    
    126200   317.67487     -218730.72      0             -218264.79     -1091.0585    
    126300   311.46114     -218726.74      0             -218269.91     -759.01616    
    126400   313.26418     -218727.94      0             -218268.47     -176.694      
    126500   312.60265     -218724.04      0             -218265.54     -366.28992    
    126600   316.82679     -218727.4       0             -218262.7      -1163.9922    
    126700   317.77616     -218726.85      0             -218260.76     -928.69396    
    126800   313.60094     -218723.41      0             -218263.45     -630.85007    
    126900   312.78001     -218730.14      0             -218271.38     -951.78677    
    127000   310.7501      -218726.52      0             -218270.74      672.34423    
    127100   312.12947     -218721.68      0             -218263.88     -913.89153    
    127200   316.09945     -218723.55      0             -218259.92     -727.02894    
    127300   314.22011     -218722.49      0             -218261.62     -904.15603    
    127400   313.3157      -218723.54      0             -218263.99     -1264.8339    
    127500   312.7797      -218724.51      0             -218265.75     -224.55405    
    127600   312.14301     -218723.36      0             -218265.53     -1135.621     
    127700   317.15738     -218723.77      0             -218258.59     -1391.6215    
    127800   319.77348     -218724.77      0             -218255.76     -265.32249    
    127900   314.89899     -218721.75      0             -218259.88     -7.1770601    
    128000   316.42802     -218730.65      0             -218266.54     -811.77253    
    128100   315.81968     -218731.51      0             -218268.29     -406.64813    
    128200   313.23308     -218725.06      0             -218265.64     -248.56385    
    128300   317.43464     -218722.45      0             -218256.87     -1368.7348    
    128400   318.49368     -218719.1       0             -218251.96     -960.51942    
    128500   317.97148     -218722.32      0             -218255.94     -31.887878    
    128600   314.3976      -218723         0             -218261.87     -771.02176    
    128700   314.14437     -218726.62      0             -218265.86     -295.79837    
    128800   314.84167     -218728.63      0             -218266.84     -431.19633    
    128900   314.13783     -218723.78      0             -218263.03      43.880947    
    129000   319.47177     -218722.71      0             -218254.14     -863.45175    
    129100   317.28726     -218720.7       0             -218255.33     -754.31756    
    129200   314.70684     -218723.7       0             -218262.11     -552.27746    
    129300   318.86596     -218732.5       0             -218264.82     -153.09769    
    129400   310.98802     -218722.39      0             -218266.26      212.03159    
    129500   312.38232     -218722.18      0             -218264        -649.35166    
    129600   316.44017     -218718.55      0             -218254.43     -1246.0569    
    129700   318.93962     -218721.35      0             -218253.55     -158.43003    
    129800   316.585       -218723.39      0             -218259.05     -246.80894    
    129900   313.27314     -218722.5       0             -218263.02     -239.82324    
    130000   313.59184     -218725.25      0             -218265.3      -1466.3147    
    130100   312.27341     -218724.78      0             -218266.77     -203.07378    
    130200   315.06806     -218727.2       0             -218265.09     -966.72687    
    130300   317.13676     -218723.95      0             -218258.8      -1694.131     
    130400   315.41543     -218718.82      0             -218256.2      -623.35138    
    130500   315.17959     -218723.84      0             -218261.56     -475.81466    
    130600   312.78735     -218725.82      0             -218267.05     -837.67541    
    130700   314.28089     -218728.28      0             -218267.32      69.794705    
    130800   314.29183     -218725.62      0             -218264.64     -935.7379     
    130900   316.19516     -218726.23      0             -218262.46     -908.67127    
    131000   316.57899     -218726.61      0             -218262.28     -308.98164    
    131100   312.00324     -218720.94      0             -218263.32     -399.88008    
    131200   314.60139     -218725.53      0             -218264.1      -754.22895    
    131300   315.01673     -218727.65      0             -218265.61     -1233.0263    
    131400   313.31719     -218725.55      0             -218266.01     -763.51501    
    131500   317.31468     -218729.2       0             -218263.79     -290.77581    
    131600   317.84301     -218725.53      0             -218259.34      788.92146    
    131700   313.83389     -218718.5       0             -218258.2      -32.391249    
    131800   317.21673     -218726.68      0             -218261.42     -308.76457    
    131900   311.76254     -218726.52      0             -218269.25     -579.65523    
    132000   314.1567      -218730.45      0             -218269.67     -741.21576    
    132100   314.06821     -218725.5       0             -218264.85     -592.77259    
    132200   314.58412     -218719.51      0             -218258.1      -1266.9936    
    132300   316.88924     -218722         0             -218257.21     -1673.1755    
    132400   315.40935     -218722.68      0             -218260.07     -1868.1645    
    132500   313.66613     -218724.4       0             -218264.34     -462.30219    
    132600   313.38633     -218728.68      0             -218269.03     -897.23541    
    132700   315.64984     -218729.48      0             -218266.51     -733.94777    
    132800   317.46382     -218721.4       0             -218255.77      363.0519     
    132900   319.78108     -218723.99      0             -218254.96      163.9507     
    133000   314.91722     -218722.68      0             -218260.79     -74.38939     
    133100   313.0934      -218724.4       0             -218265.18     -446.91789    
    133200   313.66773     -218725         0             -218264.94      424.62392    
    133300   315.0475      -218726.1       0             -218264.01     -1364.6628    
    133400   316.17213     -218720.34      0             -218256.6      -1976.0314    
    133500   317.73222     -218717.05      0             -218251.03     -840.09706    
    133600   313.88307     -218717.29      0             -218256.92     -1009.5133    
    133700   313.14015     -218721.71      0             -218262.43     -778.76685    
    133800   313.86485     -218725.03      0             -218264.68     -1231.4971    
    133900   313.44656     -218725.87      0             -218266.13     -1576.7185    
    134000   312.67996     -218725.37      0             -218266.76     -442.82816    
    134100   315.07713     -218725.46      0             -218263.33     -584.83375    
    134200   320.08795     -218727.35      0             -218257.87     -90.350349    
    134300   317.50589     -218723.31      0             -218257.62     -632.10634    
    134400   315.92722     -218728.23      0             -218264.85     -1050.0712    
    134500   314.47023     -218731         0             -218269.76     -932.72519    
    134600   310.76331     -218724.3       0             -218268.49     -1163.4674    
    134700   313.37875     -218724.58      0             -218264.94     -494.29363    
    134800   317.07959     -218726.97      0             -218261.9      -346.10707    
    134900   319.24121     -218729.19      0             -218260.95     -404.87229    
    135000   318.00008     -218728.45      0             -218262.04      91.432124    
    135100   309.69596     -218726.03      0             -218271.79     -1218.0761    
    135200   312.37358     -218732.39      0             -218274.23     -278.70943    
    135300   314.638       -218729.4       0             -218267.91     -505.56432    
    135400   316.30848     -218727.03      0             -218263.1      -601.38948    
    135500   313.14039     -218721.5       0             -218262.21     -214.56039    
    135600   315.64229     -218725.76      0             -218262.8      -540.97983    
    135700   315.06816     -218728.14      0             -218266.02     -952.57105    
    135800   307.90674     -218722.98      0             -218271.37     -346.30581    
    135900   311.76644     -218728.4       0             -218271.13     -201.42966    
    136000   314.41937     -218723.66      0             -218262.49      730.84167    
    136100   316.2162      -218723.13      0             -218259.33     -107.16831    
    136200   313.22094     -218721.65      0             -218262.25     -635.88456    
    136300   315.57568     -218727.65      0             -218264.79     -662.15079    
    136400   311.73114     -218726.12      0             -218268.9      -561.16272    
    136500   310.38796     -218729.59      0             -218274.34     -1225.3509    
    136600   313.90196     -218733.48      0             -218273.08     -1269.0203    
    136700   315.32738     -218726.25      0             -218263.75     -336.11088    
    136800   317.39448     -218726.74      0             -218261.21     -540.22196    
    136900   317.20244     -218725.81      0             -218260.56     -423.64037    
    137000   314.74475     -218728.27      0             -218266.63     -205.66392    
    137100   313.22514     -218731.17      0             -218271.75     -665.65467    
    137200   311.67322     -218725.43      0             -218268.3      -671.12617    
    137300   314.6789      -218721.95      0             -218260.4      -734.94156    
    137400   312.77889     -218718.8       0             -218260.04     -968.73164    
    137500   313.24187     -218722.37      0             -218262.94     -56.79596     
    137600   315.80239     -218731.1       0             -218267.91      225.29107    
    137700   313.72486     -218729.71      0             -218269.57     -307.99797    
    137800   316.94763     -218729.09      0             -218264.22      942.68144    
    137900   319.40611     -218725.01      0             -218256.53     -595.79997    
    138000   315.93094     -218720.06      0             -218256.68     -1140.5703    
    138100   316.6413      -218727.4       0             -218262.98     -545.02892    
    138200   314.16558     -218728.89      0             -218268.1      -433.19997    
    138300   315.51496     -218730.05      0             -218267.28     -144.82118    
    138400   315.30995     -218726.17      0             -218263.7      -388.05043    
    138500   315.18593     -218721.36      0             -218259.07     -655.75467    
    138600   315.62987     -218720.05      0             -218257.11     -1208.6626    
    138700   313.87961     -218726.8       0             -218266.43     -53.394229    
    138800   314.65024     -218731.43      0             -218269.93     -193.0605     
    138900   313.1908      -218725.65      0             -218266.29     -762.11219    
    139000   312.13145     -218718.32      0             -218260.51     -160.69427    
    139100   317.52626     -218722.95      0             -218257.23     -336.28416    
    139200   321.42276     -218732.19      0             -218260.75     -516.10021    
    139300   314.08609     -218731.82      0             -218271.14      151.65895    
    139400   313.73915     -218730.7       0             -218270.53     -425.40927    
    139500   313.52659     -218725.13      0             -218265.28     -701.73391    
    139600   315.40987     -218721.9       0             -218259.28     -69.997847    
    139700   316.63204     -218722.5       0             -218258.09     -1629.3413    
    139800   316.68679     -218729.03      0             -218264.54     -727.48816    
    139900   316.70057     -218734.64      0             -218270.13      188.37827    
    140000   313.92382     -218729.67      0             -218269.23      690.94844    
    140100   315.80329     -218729.24      0             -218266.05     -701.89795    
    140200   317.69399     -218729.47      0             -218263.5      -1349.0416    
    140300   320.6154      -218730.88      0             -218260.63     -217.62008    
    140400   321.38088     -218728.22      0             -218256.85     -650.25832    
    140500   317.26026     -218719.71      0             -218254.38     -716.72779    
    140600   315.86858     -218723.89      0             -218260.6      -1498.6594    
    140700   312.58734     -218725.37      0             -218266.9      -1685.794     
    140800   310.61539     -218722.85      0             -218267.27     -741.77338    
    140900   316.22845     -218726.46      0             -218262.64     -1180.6143    
    141000   317.43024     -218722.02      0             -218256.44     -1192.5364    
    141100   321.93195     -218721.74      0             -218249.56     -967.20504    
    141200   318.10872     -218719.4       0             -218252.83     -1127.1773    
    141300   315.2504      -218725.36      0             -218262.98     -549.44078    
    141400   315.51176     -218728.79      0             -218266.03     -751.25324    
    141500   316.80991     -218731.76      0             -218267.09     -439.42101    
    141600   312.07699     -218723.79      0             -218266.06     -82.648943    
    141700   315.85981     -218722.44      0             -218259.16      331.14941    
    141800   320.46574     -218726.01      0             -218255.98     -415.27291    
    141900   313.10455     -218720.06      0             -218260.83      29.773781    
    142000   314.13581     -218730.25      0             -218269.5      -986.71423    
    142100   312.16027     -218727.85      0             -218270        -1591.3702    
    142200   312.4383      -218724.55      0             -218266.29     -902.31771    
    142300   321.62153     -218732.05      0             -218260.32     -368.09314    
    142400   316.27968     -218723.89      0             -218260        -495.03562    
    142500   314.69994     -218724         0             -218262.43      358.05978    
    142600   311.60862     -218721.4       0             -218264.36     -607.08011    
    142700   311.89635     -218721.8       0             -218264.33     -587.02805    
    142800   315.95373     -218726.6       0             -218263.19      527.75796    
    142900   315.74332     -218725.56      0             -218262.46      314.96109    
    143000   316.28328     -218726.01      0             -218262.12     -203.31541    
    143100   315.53452     -218727.01      0             -218264.21     -483.72461    
    143200   311.98596     -218725.3       0             -218267.71     -580.39758    
    143300   313.99725     -218729.36      0             -218268.81     -758.01347    
    143400   318.87475     -218731.27      0             -218263.57     -1425.4843    
    143500   319.3407      -218725.77      0             -218257.39     -886.99015    
    143600   317.17779     -218724.84      0             -218259.63     -1959.6829    
    143700   315.68968     -218727.96      0             -218264.93     -1190.9891    
    143800   316.12511     -218730.21      0             -218266.55     -407.07338    
    143900   314.61464     -218726.86      0             -218265.41     -1103.6536    
    144000   313.92446     -218722.8       0             -218262.36     -1532.4267    
    144100   313.9804      -218720.35      0             -218259.83     -296.40309    
    144200   315.87675     -218722.88      0             -218259.58     -693.59191    
    144300   314.22291     -218725.22      0             -218264.35     -555.1724     
    144400   309.49979     -218723.87      0             -218269.92     -339.00035    
    144500   310.28924     -218724.92      0             -218269.82     -991.48315    
    144600   314.7814      -218724.18      0             -218262.49     -648.64872    
    144700   318.7077      -218725.42      0             -218257.97      690.43079    
    144800   318.71033     -218726.62      0             -218259.16     -7.3019604    
    144900   316.30815     -218726.46      0             -218262.53     -636.03119    
    145000   313.536       -218725.09      0             -218265.22     -1250.9698    
    145100   312.87567     -218725.14      0             -218266.24     -364.93823    
    145200   314.28889     -218725.52      0             -218264.55     -917.28166    
    145300   316.9919      -218720.73      0             -218255.79      84.507946    
    145400   318.28968     -218721.93      0             -218255.09     -715.04359    
    145500   314.22084     -218723.4       0             -218262.53     -1636.795     
    145600   315.14842     -218728.84      0             -218266.61     -610.72888    
    145700   313.04182     -218725.95      0             -218266.81      189.00961    
    145800   315.05748     -218727.64      0             -218265.54     -503.63003    
    145900   318.94141     -218725.88      0             -218258.08     -732.23277    
    146000   320.58491     -218723.42      0             -218253.21     -785.38824    
    146100   315.37663     -218721.01      0             -218258.44     -869.48439    
    146200   315.23212     -218725.72      0             -218263.37     -1583.2757    
    146300   316.26866     -218728.59      0             -218264.72     -661.80803    
    146400   314.04772     -218726.15      0             -218265.53     -779.77506    
    146500   314.99131     -218728.34      0             -218266.34     -644.64215    
    146600   320.50187     -218731.61      0             -218261.53      488.69855    
    146700   316.7354      -218723.53      0             -218258.97     -21.662821    
    146800   313.61054     -218721.37      0             -218261.39     -866.17596    
    146900   309.24359     -218723.24      0             -218269.67     -1291.18      
    147000   313.1586      -218730.39      0             -218271.08     -652.61223    
    147100   318.22505     -218733.03      0             -218266.28     -686.67931    
    147200   316.17838     -218727.5       0             -218263.76     -495.17333    
    147300   312.84692     -218721.78      0             -218262.92     -695.16681    
    147400   317.57746     -218728.84      0             -218263.05     -42.336014    
    147500   309.89625     -218722.68      0             -218268.15     -847.49877    
    147600   311.9756      -218731.9       0             -218274.32     -625.83232    
    147700   316.2795      -218733.96      0             -218270.06      115.1015     
    147800   317.53419     -218727.19      0             -218261.46     -241.36974    
    147900   316.23223     -218725.56      0             -218261.74     -118.52254    
    148000   314.65098     -218726.38      0             -218264.88     -753.99613    
    148100   311.96424     -218726.19      0             -218268.63      588.68179    
    148200   313.35945     -218733.69      0             -218274.08     -677.60662    
    148300   312.66055     -218733.19      0             -218274.6       985.4878     
    148400   312.93102     -218723.62      0             -218264.64      450.96801    
    148500   311.97812     -218718.14      0             -218260.55     -576.65107    
    148600   317.91826     -218725.99      0             -218259.7       50.801658    
    148700   315.98141     -218727.7       0             -218264.25     -789.95119    
    148800   312.66624     -218729.57      0             -218270.98     -747.39005    
    148900   313.57066     -218730.22      0             -218270.3      -1376.7414    
    149000   316.72411     -218725.71      0             -218261.16     -606.49874    
    149100   314.823       -218719.06      0             -218257.31     -1392.2257    
    149200   316.5132      -218724.93      0             -218260.69     -100.28824    
    149300   315.51977     -218729.92      0             -218267.14      355.20481    
    149400   310.99765     -218726.37      0             -218270.22     -698.5205     
    149500   312.92489     -218725.01      0             -218266.04      165.7649     
    149600   317.75368     -218723.94      0             -218257.89      341.30891    
    149700   316.50524     -218722.45      0             -218258.23      1660.0143    
    149800   315.47782     -218724.23      0             -218261.51     -876.20579    
    149900   314.19951     -218725.43      0             -218264.59     -2106.8182    
    150000   313.76501     -218727.39      0             -218267.19     -983.39957    
    150100   310.21853     -218722.1       0             -218267.1      -834.23126    
    150200   314.88539     -218722.22      0             -218260.37     -1162.8922    
    150300   316.58985     -218721.04      0             -218256.69     -1148.889     
    150400   320.30212     -218729.4       0             -218259.61     -1385.1138    
    150500   314.67671     -218729.13      0             -218267.59     -920.73439    
    150600   312.71913     -218725.96      0             -218267.29     -1174.6841    
    150700   314.82622     -218726.16      0             -218264.4      -989.93504    
    150800   317.91283     -218724.41      0             -218258.13     -300.23033    
    150900   317.82774     -218719.08      0             -218252.92     -525.52923    
    151000   315.32842     -218715.61      0             -218253.11     -245.13273    
    151100   316.56899     -218726.9       0             -218262.58     -301.98099    
    151200   315.23205     -218729.85      0             -218267.5      -525.08826    
    151300   313.99953     -218728.56      0             -218268.01     -1270.2181    
    151400   317.1925      -218727.9       0             -218262.67     -777.47775    
    151500   320.07527     -218725.8       0             -218256.34     -1015.1963    
    151600   315.42332     -218720.91      0             -218258.28     -60.326524    
    151700   315.91207     -218724.87      0             -218261.51     -774.7368     
    151800   314.9149      -218724.62      0             -218262.73     -953.51803    
    151900   315.94035     -218727.71      0             -218264.32     -827.96251    
    152000   312.64864     -218724.62      0             -218266.05     -538.39394    
    152100   312.43757     -218727.97      0             -218269.71     -458.79461    
    152200   312.60171     -218729.08      0             -218270.58     -739.86478    
    152300   312.91926     -218723.18      0             -218264.22     -170.89323    
    152400   318.02848     -218724.37      0             -218257.91     -1220.8752    
    152500   318.94566     -218727.08      0             -218259.27     -335.37841    
    152600   312.87484     -218724.39      0             -218265.49      420.467      
    152700   313.27654     -218726.77      0             -218267.29      336.10385    
    152800   314.85225     -218728.38      0             -218266.58      51.198808    
    152900   314.97776     -218726.31      0             -218264.33     -674.96919    
    153000   314.82782     -218723.28      0             -218261.52     -108.57705    
    153100   318.91523     -218723.61      0             -218255.85     -716.44213    
    153200   321.05704     -218723.3       0             -218252.41     -1299.6453    
    153300   314.29702     -218721.59      0             -218260.61     -2765.3729    
    153400   317.24215     -218731.18      0             -218265.87     -782.29922    
    153500   317.72135     -218733.15      0             -218267.14     -368.63275    
    153600   315.94066     -218729.26      0             -218265.86      495.01601    
    153700   316.89654     -218723.87      0             -218259.07     -1012.8914    
    153800   316.11866     -218719.27      0             -218255.61     -312.12003    
    153900   316.10946     -218725.65      0             -218262.01      163.96875    
    154000   317.59774     -218733.96      0             -218268.14     -961.18802    
    154100   315.52526     -218730.34      0             -218267.55     -1138.0164    
    154200   314.54        -218725.93      0             -218264.59     -1206.6342    
    154300   321.1452      -218729.11      0             -218258.08     -1521.1881    
    154400   316.34218     -218720.74      0             -218256.75     -336.50285    
    154500   314.45381     -218727.61      0             -218266.39     -54.108617    
    154600   311.8725      -218728.51      0             -218271.08     -473.57314    
    154700   313.17617     -218726.74      0             -218267.4       276.60601    
    154800   312.86711     -218720.97      0             -218262.08     -391.53236    
    154900   315.95637     -218721.5       0             -218258.08     -621.00764    
    155000   318.89802     -218729.17      0             -218261.44     -885.52114    
    155100   311.15753     -218727.86      0             -218271.48     -1310.5595    
    155200   313.75299     -218730.06      0             -218269.87      196.73889    
    155300   316.26619     -218727.86      0             -218263.98     -1379.4781    
    155400   315.27736     -218723.6       0             -218261.17     -1059.9027    
    155500   317.88928     -218726.63      0             -218260.38     -90.610861    
    155600   311.81691     -218723.61      0             -218266.26     -616.44422    
    155700   312.59213     -218731.38      0             -218272.9      -441.23399    
    155800   312.95142     -218728.23      0             -218269.22     -1382.3979    
    155900   316.80733     -218727.47      0             -218262.8      -1922.8894    
    156000   317.79287     -218727.44      0             -218261.33     -1428.9606    
    156100   316.4933      -218726.46      0             -218262.26     -424.60683    
    156200   313.78608     -218727.49      0             -218267.25     -525.59149    
    156300   308.44117     -218729.12      0             -218276.73     -71.286719    
    156400   313.69094     -218734.46      0             -218274.36     -556.90216    
    156500   314.09842     -218729.46      0             -218268.76      458.31445    
    156600   318.96761     -218731.8       0             -218263.96      378.4922     
    156700   316.18533     -218726.11      0             -218262.35      448.11094    
    156800   315.90518     -218725.52      0             -218262.18     -879.22294    
    156900   315.36655     -218730         0             -218267.44     -362.23249    
    157000   313.87645     -218734.02      0             -218273.65     -1104.8355    
    157100   314.51731     -218731.83      0             -218270.53     -747.77647    
    157200   314.2117      -218724.14      0             -218263.28     -1026.3675    
    157300   317.72583     -218728.55      0             -218262.53     -856.0598     
    157400   315.31937     -218725.06      0             -218262.58     -266.60076    
    157500   316.66055     -218727.85      0             -218263.4      -1306.7884    
    157600   312.22117     -218727.69      0             -218269.75     -1421.6636    
    157700   312.51149     -218731.53      0             -218273.17     -1058.789     
    157800   311.90097     -218724.62      0             -218267.15     -721.87108    
    157900   313.18977     -218719.78      0             -218260.42     -1052.8301    
    158000   316.58735     -218725.65      0             -218261.31     -378.37692    
    158100   313.7699      -218724.3       0             -218264.09     -1695.949     
    158200   317.08918     -218732.53      0             -218267.45     -2311.0374    
    158300   311.79564     -218732.95      0             -218275.64     -1348.5662    
    158400   311.82116     -218732.27      0             -218274.91     -332.74146    
    158500   315.57954     -218728.76      0             -218265.9      -378.52833    
    158600   314.52911     -218724.04      0             -218262.72     -510.1269     
    158700   314.93074     -218723.17      0             -218261.26     -270.34966    
    158800   315.02418     -218725.35      0             -218263.3      -480.55489    
    158900   313.40879     -218730.74      0             -218271.06     -2.504975     
    159000   310.78236     -218729.12      0             -218273.29     -1110.4325    
    159100   313.1608      -218727.69      0             -218268.37     -19.138795    
    159200   314.7194      -218727.16      0             -218265.56      223.4777     
    159300   315.28225     -218726.26      0             -218263.83     -465.62103    
    159400   317.21178     -218726.97      0             -218261.71      658.18058    
    159500   316.24715     -218726.27      0             -218262.43      493.47377    
    159600   314.51428     -218728.59      0             -218267.29      139.75821    
    159700   310.4565      -218727.24      0             -218271.89     -366.49682    
    159800   310.55566     -218724.31      0             -218268.81     -830.18859    
    159900   315.11542     -218722.62      0             -218260.44     -518.82441    
    160000   314.98153     -218722.71      0             -218260.73     -570.24253    
    160100   314.06041     -218723.6       0             -218262.97      259.34652    
    160200   316.77467     -218731.14      0             -218266.52     -962.47377    
    160300   307.96167     -218726.85      0             -218275.16     -259.36369    
    160400   311.28632     -218731.93      0             -218275.36      553.04111    
    160500   313.19194     -218726.44      0             -218267.08     -968.34648    
    160600   313.88067     -218724.58      0             -218264.21     -1004.4452    
    160700   311.23193     -218721.68      0             -218265.2      -346.32938    
    160800   317.76108     -218730.97      0             -218264.9      -736.08427    
    160900   316.31638     -218725.85      0             -218261.9      -755.0506     
    161000   318.66245     -218723.6       0             -218256.21     -766.12804    
    161100   317.22505     -218722.06      0             -218256.78     -1420.1005    
    161200   314.82914     -218728.09      0             -218266.33     -1118.8076    
    161300   310.72029     -218724.13      0             -218268.4      -794.75383    
    161400   315.94532     -218728.25      0             -218264.84     -874.53014    
    161500   315.19326     -218722.8       0             -218260.51     -333.18047    
    161600   314.62824     -218719.8       0             -218258.33     -1277.8128    
    161700   315.8275      -218719.77      0             -218256.54     -1112.4822    
    161800   317.39587     -218726.42      0             -218260.89     -897.0883     
    161900   315.05818     -218729.17      0             -218267.07      121.16503    
    162000   314.20471     -218731.75      0             -218270.9      -843.46147    
    162100   315.05538     -218729.46      0             -218267.37     -199.15416    
    162200   319.81888     -218728.82      0             -218259.74     -501.06645    
    162300   318.00367     -218725.95      0             -218259.53      542.43183    
    162400   318.72446     -218729.69      0             -218262.22      340.89272    
    162500   313.94364     -218726.16      0             -218265.7      -1349.7051    
    162600   313.95199     -218728.22      0             -218267.74     -518.94316    
    162700   315.10502     -218736.72      0             -218274.55     -395.49785    
    162800   310.13512     -218731.77      0             -218276.89     -1006.0418    
    162900   311.74354     -218724.73      0             -218267.49     -1169.6545    
    163000   314.06814     -218723.83      0             -218263.19     -690.86138    
    163100   315.59515     -218724.65      0             -218261.76      432.93137    
    163200   311.29253     -218720.04      0             -218263.46     -322.0658     
    163300   310.91996     -218725.69      0             -218269.66     -303.34171    
    163400   310.30015     -218727.95      0             -218272.83     -375.07143    
    163500   311.63218     -218722.56      0             -218265.49      522.27463    
    163600   315.27889     -218720.92      0             -218258.5      -1013.693     
    163700   317.06695     -218724.53      0             -218259.49     -1453.763     
    163800   317.20782     -218730.4       0             -218265.15      411.77374    
    163900   314.45689     -218730.2       0             -218268.98     -151.97315    
    164000   312.82296     -218725.3       0             -218266.48     -579.8655     
    164100   312.71865     -218720.61      0             -218261.94     -973.62571    
    164200   317.43351     -218720.65      0             -218255.06     -1840.2059    
    164300   322.58865     -218719.23      0             -218246.08     -162.63817    
    164400   317.29647     -218719.73      0             -218254.34     -257.8099     
    164500   317.93264     -218728.03      0             -218261.71     -447.62709    
    164600   311.14074     -218723.84      0             -218267.48     -773.51643    
    164700   314.33569     -218727.65      0             -218266.61      226.37458    
    164800   314.34351     -218723.49      0             -218262.43      224.55849    
    164900   321.56245     -218728.25      0             -218256.61     -218.5948     
    165000   320.10488     -218722.47      0             -218252.97     -1055.382     
    165100   315.32416     -218721         0             -218258.51     -443.04435    
    165200   313.05702     -218725.26      0             -218266.1      -647.1888     
    165300   313.05049     -218726.04      0             -218266.88      287.58192    
    165400   314.68293     -218725.22      0             -218263.67     -133.23939    
    165500   319.25423     -218725.95      0             -218257.69      202.11159    
    165600   315.91256     -218719.76      0             -218256.4      -1672.603     
    165700   314.90506     -218726.19      0             -218264.31     -938.49932    
    165800   311.30379     -218726.69      0             -218270.1      -1472.6664    
    165900   314.45896     -218729.25      0             -218268.03     -226.32905    
    166000   314.32599     -218722.95      0             -218261.93      796.43981    
    166100   317.44815     -218723.69      0             -218258.08     -208.817      
    166200   317.08595     -218725.94      0             -218260.86      351.55029    
    166300   314.72787     -218729.13      0             -218267.52      302.82404    
    166400   313.44542     -218727.78      0             -218268.05     -395.99606    
    166500   314.66535     -218726.72      0             -218265.19     -287.1466     
    166600   319.23743     -218730.33      0             -218262.1      -475.74054    
    166700   317.86556     -218725.96      0             -218259.74     -558.57412    
    166800   310.21078     -218714.8       0             -218259.8      -1078.3212    
    166900   317.16826     -218730.63      0             -218265.44     -1432.4766    
    167000   315.10886     -218733.14      0             -218270.96     -406.95532    
    167100   313.98917     -218729.1       0             -218268.57     -77.23422     
    167200   316.55011     -218726.58      0             -218262.29     -668.11062    
    167300   315.38128     -218723.86      0             -218261.28      398.34864    
    167400   314.15736     -218723.59      0             -218262.81     -266.94386    
    167500   314.02742     -218726.75      0             -218266.16     -1404.4893    
    167600   313.56048     -218730.23      0             -218270.32     -549.85501    
    167700   309.44159     -218728.93      0             -218275.07     -1106.7778    
    167800   312.55236     -218730.65      0             -218272.22     -929.20131    
    167900   316.28831     -218727.59      0             -218263.69     -521.75409    
    168000   315.65687     -218724.4       0             -218261.42      125.03527    
    168100   316.18041     -218728.02      0             -218264.27     -236.92529    
    168200   310.64064     -218725.06      0             -218269.44     -1226.4881    
    168300   312.11472     -218733.15      0             -218275.36     -866.80019    
    168400   311.88732     -218730.1       0             -218272.65     -777.23871    
    168500   316.27417     -218726.36      0             -218262.48     -581.66927    
    168600   317.17806     -218724.57      0             -218259.36     -554.16117    
    168700   318.16334     -218727.65      0             -218260.99     -1279.2752    
    168800   312.25168     -218726.34      0             -218268.35     -415.27376    
    168900   315.76574     -218732.94      0             -218269.8      -14.068405    
    169000   314.18593     -218728.32      0             -218267.5      -943.95053    
    169100   314.95209     -218720.92      0             -218258.97     -714.47737    
    169200   319.18527     -218719.98      0             -218251.83     -679.72122    
    169300   316.7652      -218720.5       0             -218255.9      -606.44201    
    169400   319.23769     -218731.43      0             -218263.2      -1374.1164    
    169500   314.08768     -218728.96      0             -218268.28     -845.60206    
    169600   308.74675     -218721.75      0             -218268.91     -340.28551    
    169700   318.52937     -218729.71      0             -218262.52     -1381.5756    
    169800   318.82731     -218725.04      0             -218257.41     -775.3446     
    169900   313.67957     -218720.05      0             -218259.97     -870.63292    
    170000   316.48102     -218726.75      0             -218262.56     -1313.2057    
    170100   314.84373     -218726.56      0             -218264.77     -1647.05      
    170200   316.15203     -218730.05      0             -218266.34      211.43424    
    170300   312.97188     -218728.36      0             -218269.32     -458.35317    
    170400   310.24999     -218724         0             -218268.96      138.05854    
    170500   316.42697     -218727.07      0             -218262.96     -780.9368     
    170600   317.00831     -218722.55      0             -218257.59     -1306.2359    
    170700   318.88769     -218725.97      0             -218258.25     -1651.0441    
    170800   315.20787     -218730.16      0             -218267.84     -1865.2575    
    170900   309.79954     -218726.03      0             -218271.64     -1515.0344    
    171000   313.58417     -218728.79      0             -218268.85     -1372.701     
    171100   316.50581     -218727.44      0             -218263.21     -112.51634    
    171200   315.34018     -218724.33      0             -218261.82      753.27617    
    171300   316.92364     -218728.37      0             -218263.53     -265.26101    
    171400   315.31838     -218726.62      0             -218264.14     -1747.0709    
    171500   315.23433     -218727.33      0             -218264.97     -703.82447    
    171600   313.31295     -218726.54      0             -218266.99     -346.81481    
    171700   314.91747     -218729.02      0             -218267.13      1176.8995    
    171800   314.03886     -218720.68      0             -218260.08     -386.70971    
    171900   315.46232     -218718.5       0             -218255.81      118.33605    
    172000   312.09849     -218718.22      0             -218260.47     -554.60571    
    172100   314.38702     -218727.37      0             -218266.26     -633.43876    
    172200   318.05492     -218733.91      0             -218267.41     -567.70046    
    172300   316.32108     -218730.62      0             -218266.67      305.91755    
    172400   318.30514     -218727.89      0             -218261.03     -907.49161    
    172500   319.63531     -218723.48      0             -218254.66     -1800.8275    
    172600   317.08958     -218722.81      0             -218257.73     -1546.6517    
    172700   316.50616     -218729.69      0             -218265.46     -945.87948    
    172800   319.44928     -218735.7       0             -218267.16      30.819644    
    172900   312.33247     -218726.75      0             -218268.65      90.960349    
    173000   311.74113     -218723.02      0             -218265.78     -173.1191     
    173100   314.09072     -218717.89      0             -218257.21     -630.91051    
    173200   317.31539     -218722.97      0             -218257.56     -1899.953     
    173300   317.76541     -218729.21      0             -218263.14     -854.27521    
    173400   315.09308     -218727.96      0             -218265.81     -274.41634    
    173500   316.12667     -218730.13      0             -218266.47     -855.30292    
    173600   312.10208     -218723.28      0             -218265.51     -115.89578    
    173700   318.84635     -218726.84      0             -218259.18     -1161.8172    
    173800   318.61451     -218721.87      0             -218254.56     -1213.0505    
    173900   316.74826     -218724.44      0             -218259.87     -569.30673    
    174000   314.98396     -218730.89      0             -218268.9      -478.76588    
    174100   312.78124     -218727.2       0             -218268.44     -217.0755     
    174200   317.44771     -218729.85      0             -218264.24     -1122.3027    
    174300   316.86416     -218723.75      0             -218259        -597.00265    
    174400   318.44185     -218725.35      0             -218258.28     -165.28625    
    174500   312.89873     -218727.65      0             -218268.72     -380.29324    
    174600   309.70951     -218726.09      0             -218271.84     -528.40872    
    174700   313.35336     -218726.82      0             -218267.22      273.57642    
    174800   313.35146     -218722.33      0             -218262.73     -245.90045    
    174900   316.18488     -218725.63      0             -218261.88     -477.04949    
    175000   313.30924     -218724.93      0             -218265.39     -554.67708    
    175100   313.34828     -218732.22      0             -218272.63     -484.46428    
    175200   314.68931     -218733.35      0             -218271.79     -323.97073    
    175300   314.39702     -218725.59      0             -218264.46     -585.47156    
    175400   317.7976      -218726.82      0             -218260.7      -1558.6367    
    175500   310.85511     -218717.62      0             -218261.68     -1240.9023    
    175600   316.35697     -218729.25      0             -218265.25     -957.44612    
    175700   310.60254     -218726.38      0             -218270.82     -38.081726    
    175800   312.08817     -218731.58      0             -218273.84     -97.510276    
    175900   314.13863     -218734.41      0             -218273.66     -1166.151     
    176000   316.27824     -218730.65      0             -218266.76      476.4013     
    176100   316.26089     -218724.75      0             -218260.88      497.16903    
    176200   317.9322      -218726.42      0             -218260.11     -1066.5674    
    176300   313.09775     -218724.58      0             -218265.35     -726.06656    
    176400   313.80302     -218732.18      0             -218271.92     -1308.6206    
    176500   307.55258     -218722.17      0             -218271.07     -297.52882    
    176600   313.80626     -218727.23      0             -218266.97      171.02626    
    176700   313.20853     -218724.34      0             -218264.95     -434.43539    
    176800   315.64645     -218728.01      0             -218265.04     -220.68196    
    176900   314.98748     -218729.27      0             -218267.27     -621.98371    
    177000   313.92237     -218734.97      0             -218274.53     -2063.7342    
    177100   312.75831     -218735.05      0             -218276.32     -1324.4311    
    177200   312.38622     -218726.39      0             -218268.2      -558.02634    
    177300   311.51326     -218721.42      0             -218264.52     -349.74468    
    177400   316.06635     -218727.41      0             -218263.83      196.42549    
    177500   313.64239     -218726.64      0             -218266.62     -490.95146    
    177600   311.18609     -218730.47      0             -218274.05      301.38558    
    177700   311.28399     -218733.48      0             -218276.92     -272.4994     
    177800   311.33849     -218725.85      0             -218269.2       30.943857    
    177900   315.11928     -218726.74      0             -218264.55     -612.95645    
    178000   315.87011     -218727.59      0             -218264.3      -896.23716    
    178100   313.43796     -218726.65      0             -218266.92      132.94445    
    178200   313.52053     -218728.84      0             -218269         654.88575    
    178300   312.17762     -218727.34      0             -218269.46      530.14556    
    178400   317.0827      -218728.57      0             -218263.5      -345.67011    
    178500   316.43788     -218722.72      0             -218258.59     -296.58603    
    178600   316.10486     -218723.73      0             -218260.1      -465.7469     
    178700   312.72426     -218728.3       0             -218269.62     -199.76683    
    178800   316.23719     -218735.31      0             -218271.48     -538.24821    
    178900   313.01951     -218728.25      0             -218269.14      282.74469    
    179000   316.5193      -218728.23      0             -218263.99     -232.04352    
    179100   315.05985     -218724.44      0             -218262.34     -170.0551     
    179200   313.04381     -218724.28      0             -218265.13      159.2866     
    179300   310.72277     -218731.46      0             -218275.72     -405.86976    
    179400   313.92557     -218736.17      0             -218275.73     -352.31465    
    179500   314.65633     -218730.61      0             -218269.1      -1330.409     
    179600   314.77773     -218725.22      0             -218263.53     -1274.5614    
    179700   319.32405     -218730.07      0             -218261.71     -678.52621    
    179800   314.61529     -218725.07      0             -218263.62     -387.78526    
    179900   315.34068     -218733.32      0             -218270.81      110.86091    
    180000   311.43345     -218733.91      0             -218277.13      253.23256    
    180100   314.48125     -218734.95      0             -218273.69      295.04848    
    180200   316.70912     -218733.81      0             -218269.29      963.87449    
    180300   318.92168     -218733.44      0             -218265.67      149.84549    
    180400   315.81134     -218727.39      0             -218264.19      802.67685    
    180500   316.14543     -218728.83      0             -218265.14      603.94435    
    180600   318.39675     -218734.96      0             -218267.96     -229.64458    
    180700   312.70252     -218731.6       0             -218272.95     -413.73139    
    180800   312.70322     -218730.21      0             -218271.56     -591.0575     
    180900   313.67645     -218722.77      0             -218262.69     -817.68179    
    181000   317.14689     -218725.89      0             -218260.73     -378.48472    
    181100   316.01908     -218726.92      0             -218263.41     -705.35258    
    181200   315.34435     -218730.73      0             -218268.21     -419.29901    
    181300   311.0562      -218731.14      0             -218274.91     -567.95335    
    181400   309.44058     -218736.68      0             -218282.81     -1035.4104    
    181500   310.80241     -218732.09      0             -218276.23     -553.82632    
    181600   314.24384     -218730.42      0             -218269.52      252.05468    
    181700   313.97978     -218725.8       0             -218265.28      456.82396    
    181800   314.26347     -218722.29      0             -218261.36      618.27179    
    181900   315.9502      -218723.67      0             -218260.26      161.04114    
    182000   314.01232     -218726.53      0             -218265.96     -928.17203    
    182100   312.53628     -218730.3       0             -218271.9      -1515.4598    
    182200   315.29165     -218732.57      0             -218270.13     -485.44809    
    182300   312.79742     -218725.01      0             -218266.23     -513.49779    
    182400   314.55538     -218726.14      0             -218264.78     -1306.0602    
    182500   316.0377      -218727.53      0             -218263.99     -936.70604    
    182600   316.0911      -218729.22      0             -218265.61     -94.659394    
    182700   311.58327     -218726.41      0             -218269.4      -809.40888    
    182800   312.00322     -218733.08      0             -218275.46     -1284.8317    
    182900   310.55788     -218729.3       0             -218273.8      -726.27251    
    183000   312.34845     -218723.45      0             -218265.33      616.57697    
    183100   317.2864      -218728.63      0             -218263.27      896.3255     
    183200   316.67918     -218728.44      0             -218263.96      342.51353    
    183300   315.3001      -218731.57      0             -218269.12     -1064.3293    
    183400   314.75436     -218736.57      0             -218274.91     -681.70589    
    183500   314.78021     -218732.48      0             -218270.79     -112.35858    
    183600   318.44015     -218728.32      0             -218261.26     -499.29066    
    183700   315.12801     -218723.58      0             -218261.37     -480.24452    
    183800   316.68578     -218730.44      0             -218265.95     -1064.4216    
    183900   314.16724     -218729.96      0             -218269.16     -731.51623    
    184000   312.65233     -218727.55      0             -218268.98     -2000.0971    
    184100   313.06539     -218719.89      0             -218260.71     -1542.9459    
    184200   319.04038     -218724.42      0             -218256.48     -392.4593     
    184300   315.20661     -218724.17      0             -218261.85     -790.94682    
    184400   314.07828     -218727.48      0             -218266.82      520.57346    
    184500   315.59739     -218730.45      0             -218267.56      477.63566    
    184600   314.62109     -218728         0             -218266.54     -536.00198    
    184700   318.99241     -218730.41      0             -218262.54     -326.1187     
    184800   317.57336     -218719.55      0             -218253.76     -730.93772    
    184900   316.72219     -218719.17      0             -218254.63      288.7032     
    185000   315.46394     -218725.2       0             -218262.5       930.95722    
    185100   317.65977     -218731.26      0             -218265.34     -226.65938    
    185200   315.4767      -218730.36      0             -218267.65     -713.37175    
    185300   313.61627     -218729.15      0             -218269.17      703.74126    
    185400   315.33859     -218730.92      0             -218268.4      -268.39025    
    185500   315.13362     -218725.35      0             -218263.14     -835.21967    
    185600   318.33415     -218725.56      0             -218258.65     -95.438756    
    185700   314.04348     -218722.46      0             -218261.85     -1282.6419    
    185800   312.18458     -218728.68      0             -218270.79     -1274.414     
    185900   313.26615     -218731.23      0             -218271.76     -949.25218    
    186000   315.1016      -218730         0             -218267.84     -773.23067    
    186100   315.17548     -218726.13      0             -218263.86     -490.90232    
    186200   315.46154     -218725.43      0             -218262.74     -641.35697    
    186300   313.12411     -218723.22      0             -218263.96     -662.23892    
    186400   314.09433     -218732.03      0             -218271.34     -1599.4834    
    186500   313.41251     -218734.29      0             -218274.6       204.56003    
    186600   313.29227     -218728.13      0             -218268.62     -851.56137    
    186700   313.44939     -218722.63      0             -218262.89     -1008.0651    
    186800   318.4851      -218729.27      0             -218262.14     -1315.7806    
    186900   315.95191     -218728.36      0             -218264.95      207.64277    
    187000   315.39364     -218733.08      0             -218270.48     -1414.0134    
    187100   312.14399     -218737.34      0             -218279.51     -1071.0211    
    187200   309.92244     -218733.54      0             -218278.97     -945.78108    
    187300   314.1011      -218728.49      0             -218267.8      -947.19416    
    187400   314.52903     -218726.08      0             -218264.76     -748.03675    
    187500   317.36911     -218728.02      0             -218262.53     -539.87127    
    187600   316.26147     -218726.26      0             -218262.39     -2513.6688    
    187700   312.56793     -218724.77      0             -218266.32     -831.79432    
    187800   313.48211     -218732.25      0             -218272.46     -264.25548    
    187900   314.04559     -218733.13      0             -218272.51     -251.50563    
    188000   318.36378     -218729.92      0             -218262.97     -98.243312    
    188100   316.65951     -218724.75      0             -218260.3      -704.92747    
    188200   316.11826     -218725.93      0             -218262.27      371.79728    
    188300   315.44293     -218730.54      0             -218267.87     -747.10441    
    188400   311.71628     -218731.35      0             -218274.15     -771.14786    
    188500   310.19965     -218733.39      0             -218278.41     -1384.0035    
    188600   310.91458     -218731.1       0             -218275.07      188.71525    
    188700   313.97705     -218726.91      0             -218266.4      -1536.2253    
    188800   316.38565     -218726.25      0             -218262.21     -1641.7613    
    188900   315.7035      -218723.09      0             -218260.04     -304.10746    
    189000   318.04554     -218727.44      0             -218260.96     -1609.4987    
    189100   319.15679     -218737.53      0             -218269.42     -863.9776     
    189200   310.77817     -218729.09      0             -218273.27      242.0419     
    189300   311.62001     -218727.01      0             -218269.95      215.39218    
    189400   316.15203     -218728.23      0             -218264.53     -1047.7113    
    189500   315.37303     -218725.65      0             -218263.09     -541.1221     
    189600   317.93562     -218730.53      0             -218264.21     -1090.2312    
    189700   316.7589      -218731.04      0             -218266.45     -621.2755     
    189800   313.74108     -218729.82      0             -218269.65     -522.53936    
    189900   313.08509     -218734.73      0             -218275.53     -823.00638    
    190000   311.15112     -218731.93      0             -218275.56     -73.321121    
    190100   311.73711     -218723.2       0             -218265.97     -95.577026    
    190200   314.47874     -218723.87      0             -218262.62     -116.69226    
    190300   316.86569     -218728.8       0             -218264.05     -355.72929    
    190400   312.13722     -218726.74      0             -218268.93     -695.07526    
    190500   309.60802     -218728.72      0             -218274.61     -1355.5029    
    190600   311.97626     -218735.25      0             -218277.67     -509.01265    
    190700   312.76478     -218727.85      0             -218269.11     -908.85782    
    190800   314.96378     -218725.19      0             -218263.23      208.72554    
    190900   317.71411     -218728.17      0             -218262.18     -870.83864    
    191000   316.24683     -218729.31      0             -218265.46     -1331.5735    
    191100   313.59692     -218732.86      0             -218272.91     -135.51272    
    191200   316.31885     -218737.68      0             -218273.73     -83.496947    
    191300   311.93855     -218725.15      0             -218267.62     -788.55956    
    191400   315.17326     -218726.97      0             -218264.7      -967.29895    
    191500   315.16082     -218727.7       0             -218265.44     -932.58113    
    191600   312.84681     -218725.86      0             -218267.01     -385.18167    
    191700   313.18573     -218728         0             -218268.65     -320.08051    
    191800   317.00367     -218733.1       0             -218268.15     -1015.3403    
    191900   317.93662     -218730.33      0             -218264.01     -69.907783    
    192000   316.63867     -218723.3       0             -218258.88     -580.91724    
    192100   314.4896      -218721.82      0             -218260.55     -1276.626     
    192200   315.47089     -218732.45      0             -218269.74     -478.48367    
    192300   314.49457     -218732.08      0             -218270.8      -1115.3429    
    192400   310.64693     -218724.02      0             -218268.39     -1590.8928    
    192500   313.45102     -218723.63      0             -218263.88     -1379.3143    
    192600   317.22285     -218724.07      0             -218258.79     -1055.7448    
    192700   315.51244     -218725.02      0             -218262.25     -1935.2743    
    192800   314.70205     -218735.9       0             -218274.33     -402.69981    
    192900   309.82213     -218727.28      0             -218272.85     -790.99407    
    193000   314.25853     -218726.34      0             -218265.41     -1246.2318    
    193100   317.56112     -218726.86      0             -218261.08     -573.84366    
    193200   314.97631     -218723.89      0             -218261.91     -17.230317    
    193300   316.46895     -218732.5       0             -218268.33      135.74902    
    193400   313.02405     -218733.88      0             -218274.76      515.63475    
    193500   314.29012     -218734.27      0             -218273.3      -371.45391    
    193600   312.16053     -218727.57      0             -218269.72     -372.20265    
    193700   309.43112     -218719.74      0             -218265.89     -693.31814    
    193800   315.67545     -218725.22      0             -218262.22     -1868.8679    
    193900   318.6481      -218729.33      0             -218261.96     -602.28338    
    194000   312.83418     -218727.33      0             -218268.49     -730.69039    
    194100   310.99561     -218729.51      0             -218273.37     -752.14127    
    194200   314.12461     -218731.9       0             -218271.17     -855.37095    
    194300   316.94343     -218727.33      0             -218262.46     -1965.6355    
    194400   316.41334     -218723.62      0             -218259.53     -1952.3226    
    194500   317.97742     -218729.68      0             -218263.3      -1961.1674    
    194600   312.35466     -218726.5       0             -218268.36     -233.27869    
    194700   311.23783     -218726.94      0             -218270.44     -309.56513    
    194800   315.13995     -218730.33      0             -218268.1      -500.41029    
    194900   320.81858     -218728.66      0             -218258.11     -166.78624    
    195000   317.27739     -218723.97      0             -218258.61      1194.2355    
    195100   314.0324      -218725.32      0             -218264.73     -56.471276    
    195200   316.67479     -218734         0             -218269.52     -273.22524    
    195300   312.21981     -218727.56      0             -218269.62     -1103.9273    
    195400   315.21511     -218730.07      0             -218267.74     -294.18093    
    195500   315.14412     -218728.52      0             -218266.3       288.63777    
    195600   313.71451     -218724.54      0             -218264.41     -743.97206    
    195700   317.08231     -218729.24      0             -218264.17     -471.88065    
    195800   315.84688     -218729.09      0             -218265.83     -11.790156    
    195900   312.49388     -218726.87      0             -218268.53     -799.4903     
    196000   313.54679     -218728.58      0             -218268.7      -1008.319     
    196100   319.2911      -218733.39      0             -218265.09     -961.96529    
    196200   318.8884      -218728.43      0             -218260.71     -823.66305    
    196300   318.84439     -218727.46      0             -218259.81     -401.16238    
    196400   315.9063      -218730.03      0             -218266.68      521.9017     
    196500   317.06285     -218736.91      0             -218271.87     -207.01525    
    196600   313.16676     -218730.08      0             -218270.75     -479.78856    
    196700   315.03455     -218729.88      0             -218267.81     -277.90235    
    196800   314.12197     -218727.14      0             -218266.42     -470.58819    
    196900   315.02931     -218726.99      0             -218264.94      23.468535    
    197000   312.98068     -218724.08      0             -218265.02     -283.17556    
    197100   315.98021     -218734.19      0             -218270.74     -733.52974    
    197200   310.96636     -218732.1       0             -218276        -534.31654    
    197300   315.15988     -218734.47      0             -218272.22     -253.44944    
    197400   315.48302     -218727.26      0             -218264.54     -873.81498    
    197500   317.30274     -218728.51      0             -218263.12     -744.98539    
    197600   315.68214     -218728.33      0             -218265.32     -355.76909    
    197700   311.73335     -218727.83      0             -218270.61     -842.00329    
    197800   312.62651     -218731.45      0             -218272.91      95.293729    
    197900   314.53377     -218729.03      0             -218267.7      -562.98672    
    198000   316.86453     -218725.35      0             -218260.6      -959.95594    
    198100   318.00737     -218726.29      0             -218259.86     -563.55553    
    198200   316.56252     -218729.42      0             -218265.12     -321.06865    
    198300   313.85011     -218732.67      0             -218272.34     -612.87598    
    198400   313.8048      -218731.61      0             -218271.35     -405.64566    
    198500   311.60688     -218724.82      0             -218267.78     -231.86644    
    198600   315.99838     -218727.02      0             -218263.54     -1458.8254    
    198700   312.70709     -218722.57      0             -218263.92     -969.72383    
    198800   316.66302     -218729.54      0             -218265.08     -39.987255    
    198900   314.02816     -218727.33      0             -218266.74      805.87057    
    199000   314.7224      -218730.39      0             -218268.78     -1006.4628    
    199100   311.04129     -218729.67      0             -218273.47     -397.02181    
    199200   312.6616      -218736.35      0             -218277.77     -1652.371     
    199300   314.69062     -218732.42      0             -218270.86     -1718.1991    
    199400   312.89593     -218724.05      0             -218265.12     -1302.6699    
    199500   314.97732     -218725.42      0             -218263.43      25.461254    
    199600   316.82519     -218729.98      0             -218265.29     -360.39225    
    199700   312.16162     -218731.13      0             -218273.28     -191.41584    
    199800   312.34132     -218735.36      0             -218277.24     -314.44945    
    199900   313.44717     -218732.12      0             -218272.39      430.87033    
    200000   313.35536     -218727.8       0             -218268.2      -1143.6907    
    200100   315.71437     -218729.18      0             -218266.12     -1790.2304    
    200200   316.48592     -218728.24      0             -218264.04     -323.12226    
    200300   317.71911     -218726.84      0             -218260.84      465.79225    
    200400   314.05473     -218723.14      0             -218262.51     -234.88696    
    200500   318.44358     -218736.92      0             -218269.85     -862.09155    
    200600   311.97611     -218730.76      0             -218273.18     -621.7405     
    200700   314.47043     -218730.83      0             -218269.59      325.29709    
    200800   317.11332     -218727.47      0             -218262.36     -738.89407    
    200900   317.29732     -218724.98      0             -218259.6      -760.17912    
    201000   314.44898     -218723.16      0             -218261.95     -867.27784    
    201100   313.63471     -218726.69      0             -218266.68     -1062.5362    
    201200   313.02986     -218729.73      0             -218270.6      -120.40073    
    201300   312.90648     -218728.67      0             -218269.72     -182.41872    
    201400   320.91983     -218730.59      0             -218259.89     -790.02927    
    201500   318.82728     -218725.19      0             -218257.56     -1499.1026    
    201600   316.01459     -218725.89      0             -218262.38      49.625087    
    201700   314.70884     -218729.62      0             -218268.03      367.20619    
    201800   315.25228     -218732.23      0             -218269.84     -317.2713     
    201900   311.11095     -218725.29      0             -218268.98      1241.6457    
    202000   316.09847     -218730.71      0             -218267.08      454.88854    
    202100   317.84228     -218729.13      0             -218262.94     -317.14312    
    202200   318.94409     -218721.26      0             -218253.46     -430.66296    
    202300   317.83751     -218722.92      0             -218256.75     -791.79564    
    202400   317.97318     -218730.69      0             -218264.31     -185.05817    
    202500   318.73793     -218735.13      0             -218267.63     -96.010434    
    202600   314.72456     -218731.27      0             -218269.66     -324.6537     
    202700   314.62551     -218731.18      0             -218269.71     -571.32715    
    202800   317.36314     -218730.07      0             -218264.59     -122.31274    
    202900   315.78882     -218722.14      0             -218258.96     -508.88124    
    203000   318.15499     -218727.38      0             -218260.74     -144.13729    
    203100   315.75968     -218732.34      0             -218269.21     -539.82438    
    203200   315.87062     -218734.45      0             -218271.16     -561.02693    
    203300   312.90876     -218728.37      0             -218269.42     -31.126223    
    203400   319.39759     -218734.21      0             -218265.75     -84.393634    
    203500   316.16855     -218721.85      0             -218258.12     -155.88777    
    203600   321.97932     -218726.5       0             -218254.25     -514.91508    
    203700   316.21865     -218727.16      0             -218263.36     -130.41141    
    203800   315.29151     -218730.3       0             -218267.86     -787.63971    
    203900   315.01786     -218729.43      0             -218267.39     -1288.8181    
    204000   318.00863     -218731.87      0             -218265.44     -1162.9443    
    204100   314.62398     -218724.18      0             -218262.72     -516.95584    
    204200   317.8413      -218725.96      0             -218259.78      417.80481    
    204300   315.43441     -218726.84      0             -218264.19      228.81379    
    204400   314.16879     -218732.96      0             -218272.16     -665.41256    
    204500   310.78436     -218729.19      0             -218273.36     -502.97946    
    204600   313.24993     -218729.1       0             -218269.65     -821.50028    
    204700   314.12756     -218726.03      0             -218265.29     -518.86971    
    204800   314.20578     -218725.67      0             -218264.82      787.71721    
    204900   315.84036     -218728.97      0             -218265.72      296.94816    
    205000   313.89531     -218728.52      0             -218268.13     -312.9907     
    205100   316.2016      -218735.9       0             -218272.12      69.000524    
    205200   311.88834     -218734.77      0             -218277.32     -406.81763    
    205300   314.68142     -218736.72      0             -218275.17     -1206.9408    
    205400   315.37658     -218728.8       0             -218266.23     -1285.3208    
    205500   317.7082      -218728.61      0             -218262.62     -661.57428    
    205600   315.61495     -218726.83      0             -218263.91     -1848.459     
    205700   315.3561      -218731.84      0             -218269.3      -261.36386    
    205800   313.50951     -218737.2       0             -218277.37     -612.05586    
    205900   311.19901     -218734.07      0             -218277.63     -389.04989    
    206000   312.85566     -218728.78      0             -218269.91      197.37825    
    206100   314.01328     -218728.42      0             -218267.86     -313.82124    
    206200   316.98135     -218731.83      0             -218266.91     -837.77288    
    206300   316.47785     -218731.01      0             -218266.83     -645.39122    
    206400   315.29369     -218730.61      0             -218268.17     -1187.7764    
    206500   312.38881     -218728.51      0             -218270.32     -1481.0047    
    206600   313.82145     -218731.15      0             -218270.86     -1344.3332    
    206700   313.38389     -218726.17      0             -218266.53     -996.85088    
    206800   318.49709     -218727.6       0             -218260.45     -582.51147    
    206900   317.51079     -218727.91      0             -218262.22      476.12035    
    207000   312.00245     -218727.07      0             -218269.45     -784.70765    
    207100   315.2253      -218733.97      0             -218271.63     -437.63105    
    207200   310.39899     -218725.31      0             -218270.04     -336.25579    
    207300   315.20537     -218728.34      0             -218266.03     -4.3249873    
    207400   314.2151      -218724.64      0             -218263.78     -251.1008     
    207500   315.6786      -218727.79      0             -218264.78     -283.43099    
    207600   312.84226     -218731.66      0             -218272.81      286.1225     
    207700   310.83019     -218731.38      0             -218275.48     -1007.7376    
    207800   315.81082     -218732.91      0             -218269.71     -1502.7328    
    207900   317.46687     -218730.33      0             -218264.69     -740.10216    
    208000   314.02305     -218724.95      0             -218264.37     -1077.7081    
    208100   314.41309     -218726.62      0             -218265.46     -1235.4279    
    208200   312.32004     -218725.75      0             -218267.67     -1143.1319    
    208300   309.98763     -218722.82      0             -218268.15     -394.90776    
    208400   313.30218     -218727.32      0             -218267.8      -434.85832    
    208500   317.01676     -218732.62      0             -218267.65     -629.7574     
    208600   314.76746     -218729.55      0             -218267.88     -977.66415    
    208700   317.64916     -218734.45      0             -218268.55     -494.02841    
    208800   313.17819     -218729.18      0             -218269.84      243.56823    
    208900   316.34478     -218732.01      0             -218268.02     -1004.5922    
    209000   315.72475     -218726.29      0             -218263.21     -302.52069    
    209100   319.72873     -218731.83      0             -218262.88     -208.46856    
    209200   313.69874     -218730.33      0             -218270.22     -796.93801    
    209300   315.29565     -218737.09      0             -218274.64     -1085.4563    
    209400   311.01038     -218729.4       0             -218273.23     -318.4234     
    209500   317.23751     -218731.41      0             -218266.11     -1111.5903    
    209600   316.89057     -218730.32      0             -218265.53     -1200.0069    
    209700   317.4646      -218733.68      0             -218268.05     -1031.049     
    209800   316.82404     -218735.09      0             -218270.39     -261.26475    
    209900   309.00598     -218726.46      0             -218273.24     -318.8704     
    210000   312.2471      -218729.51      0             -218271.53     -1362.1503    
    210100   316.11637     -218728.44      0             -218264.78     -1228.8244    
    210200   314.68742     -218723.11      0             -218261.56     -1167.4863    
    210300   313.85094     -218726.02      0             -218265.69     -315.02141    
    210400   313.86639     -218734.81      0             -218274.45      587.45342    
    210500   312.89814     -218733.51      0             -218274.58     -65.718146    
    210600   312.84668     -218730.09      0             -218271.23     -2.8364545    
    210700   317.92119     -218732.15      0             -218265.85     -1230.5694    
    210800   315.04863     -218727.15      0             -218265.07     -902.63049    
    210900   316.15167     -218732.25      0             -218268.55     -1110.0141    
    211000   312.21713     -218728.25      0             -218270.31     -1560.0124    
    211100   314.07363     -218731.13      0             -218270.47     -1189.1413    
    211200   312.45879     -218728.64      0             -218270.35     -566.90943    
    211300   313.72667     -218727.57      0             -218267.42     -280.98262    
    211400   316.10068     -218726.63      0             -218263        -887.05122    
    211500   320.07331     -218731.21      0             -218261.75     -2665.2272    
    211600   318.42211     -218735.4       0             -218268.37     -1118.6567    
    211700   314.43644     -218735.75      0             -218274.56     -416.83903    
    211800   314.08762     -218734.59      0             -218273.92     -1516.2681    
    211900   315.23093     -218730.68      0             -218268.32     -1043.2351    
    212000   318.8063      -218729.78      0             -218262.19     -666.51368    
    212100   318.74196     -218731.25      0             -218263.75      986.35537    
    212200   314.92819     -218738         0             -218276.09      718.6051     
    212300   312.04348     -218734.3       0             -218276.63     -126.04903    
    212400   317.05037     -218736.36      0             -218271.34     -946.19138    
    212500   320.02157     -218734.9       0             -218265.52     -1207.5699    
    212600   316.66899     -218730.36      0             -218265.89     -39.638055    
    212700   314.11132     -218732.5       0             -218271.78      172.40598    
    212800   310.98357     -218733.46      0             -218277.33     -324.14213    
    212900   313.7197      -218734.71      0             -218274.57      415.45578    
    213000   313.04487     -218730.69      0             -218271.54     -97.258469    
    213100   316.9729      -218734.12      0             -218269.21     -1169.6643    
    213200   315.87012     -218731.34      0             -218268.05     -575.81578    
    213300   315.36955     -218728.97      0             -218266.42     -321.75999    
    213400   318.28793     -218730.8       0             -218263.97     -471.69341    
    213500   314.91668     -218729.04      0             -218267.14     -1240.3028    
    213600   317.11156     -218738.52      0             -218273.4      -842.12196    
    213700   310.89512     -218732.84      0             -218276.85     -952.32295    
    213800   313.25832     -218731.81      0             -218272.35     -1037.4151    
    213900   318.20648     -218731.46      0             -218264.74      59.8987      
    214000   311.84735     -218722.72      0             -218265.33     -789.16541    
    214100   317.61255     -218734.14      0             -218268.29     -1338.6526    
    214200   314.75554     -218734.74      0             -218273.08     -278.47008    
    214300   312.15783     -218735.63      0             -218277.79     -766.2927     
    214400   309.65314     -218734.25      0             -218280.08     -1221.6693    
    214500   314.46593     -218732.89      0             -218271.66     -1690.753     
    214600   318.21927     -218732.66      0             -218265.92     -1828.5119    
    214700   316.90386     -218730.38      0             -218265.57     -830.95862    
    214800   316.17749     -218734.89      0             -218271.15      156.02634    
    214900   311.38599     -218732.93      0             -218276.22     -753.74704    
    215000   311.7078      -218731.49      0             -218274.3       67.429838    
    215100   317.49145     -218728.67      0             -218263        -120.58273    
    215200   320.48175     -218733.77      0             -218263.71     -489.87843    
    215300   309.801       -218724.84      0             -218270.45     -190.60557    
    215400   313.80355     -218733.55      0             -218273.29     -206.71129    
    215500   311.00266     -218728.87      0             -218272.72     -908.19912    
    215600   316.51112     -218729.52      0             -218265.28     -1198.1023    
    215700   320.87168     -218729.92      0             -218259.29     -525.48708    
    215800   320.49138     -218731.88      0             -218261.81     -710.37503    
    215900   313.81454     -218727.48      0             -218267.21     -896.41161    
    216000   311.31653     -218726.31      0             -218269.7      -1311.5558    
    216100   314.12758     -218731.84      0             -218271.1      -1691.792     
    216200   317.19877     -218736.29      0             -218271.05     -1199.4187    
    216300   315.60322     -218730.42      0             -218267.52      140.0691     
    216400   318.89647     -218729.18      0             -218261.45     -489.46523    
    216500   313.75834     -218724.72      0             -218264.53     -1805.6228    
    216600   315.0985      -218733.17      0             -218271.01     -1189.8534    
    216700   318.36642     -218740.88      0             -218273.92     -1496.2594    
    216800   310.81565     -218728.89      0             -218273.01     -1120.3522    
    216900   313.22457     -218730.61      0             -218271.2      -682.60438    
    217000   312.37941     -218726.79      0             -218268.62     -1133.6394    
    217100   315.47868     -218728.27      0             -218265.55      50.491624    
    217200   316.17488     -218724.03      0             -218260.3      -309.79264    
    217300   318.04731     -218725.32      0             -218258.84     -501.27496    
    217400   317.70417     -218733.29      0             -218267.31     -1800.5392    
    217500   317.21299     -218737.18      0             -218271.92     -34.371872    
    217600   313.57074     -218732.11      0             -218272.19      386.01658    
    217700   317.21565     -218734.91      0             -218269.65     -82.421028    
    217800   314.12055     -218724.11      0             -218263.38     -630.02027    
    217900   316.47082     -218723.67      0             -218259.5      -812.93579    
    218000   317.32259     -218732.37      0             -218266.95     -967.6771     
    218100   317.39748     -218737.88      0             -218272.35     -315.60467    
    218200   313.08903     -218731.58      0             -218272.37      322.20155    
    218300   317.46714     -218735.49      0             -218269.86      240.84332    
    218400   317.75909     -218731.3       0             -218265.24     -953.41008    
    218500   315.24522     -218722.3       0             -218259.93     -919.158      
    218600   316.10317     -218726.97      0             -218263.33     -233.90622    
    218700   317.13127     -218737.6       0             -218272.46      117.8401     
    218800   317.82034     -218739.43      0             -218273.28      99.219235    
    218900   314.62074     -218732.92      0             -218271.46     -384.51276    
    219000   316.19826     -218728.33      0             -218264.56     -1080.3695    
    219100   317.96676     -218725.78      0             -218259.41     -250.24162    
    219200   318.02923     -218729.7       0             -218263.24     -1587.975     
    219300   310.89034     -218729.14      0             -218273.15     -438.50532    
    219400   314.99319     -218734.54      0             -218272.53     -35.433414    
    219500   316.47805     -218733.3       0             -218269.12     -8.0533517    
    219600   318.47923     -218733.63      0             -218266.51     -65.855063    
    219700   316.50758     -218730.89      0             -218266.66     -1414.1745    
    219800   315.55504     -218734.84      0             -218272.01     -2204.6106    
    219900   311.94981     -218734.23      0             -218276.69     -249.45551    
    220000   313.16245     -218735.31      0             -218275.99     -799.05732    
    220100   316.32093     -218730.25      0             -218266.3      -939.43524    
    220200   318.20271     -218730.56      0             -218263.84     -1524.9885    
    220300   315.46642     -218729.44      0             -218266.74     -1611.9079    
    220400   313.75393     -218733.17      0             -218272.98     -1034.2399    
    220500   312.71205     -218733.31      0             -218274.65     -1266.4613    
    220600   311.8966      -218730.39      0             -218272.93     -1288.7745    
    220700   316.66428     -218734.62      0             -218270.17     -772.79424    
    220800   314.98564     -218730.34      0             -218268.35     -423.03428    
    220900   317.94651     -218734.69      0             -218268.35     -1518.5052    
    221000   314.37628     -218732.96      0             -218271.86     -1080.075     
    221100   313.84186     -218735.38      0             -218275.07     -1487.4781    
    221200   314.53712     -218734.72      0             -218273.38     -1385.9198    
    221300   312.94805     -218725.65      0             -218266.64     -1148.5638    
    221400   316.12859     -218725.71      0             -218262.04     -397.20134    
    221500   317.37488     -218730.21      0             -218264.71     -767.07385    
    221600   315.57593     -218732.39      0             -218269.53     -906.15263    
    221700   315.26182     -218733.09      0             -218270.69     -667.46741    
    221800   313.98649     -218731.68      0             -218271.15     -799.16259    
    221900   313.30489     -218731.64      0             -218272.11     -1119.2528    
    222000   313.13457     -218733.21      0             -218273.93     -606.1128     
    222100   313.62673     -218733.43      0             -218273.43     -1539.4458    
    222200   317.98208     -218734.93      0             -218268.54     -724.35411    
    222300   316.95339     -218728.54      0             -218263.66     -208.60946    
    222400   317.81356     -218730.54      0             -218264.39     -47.424436    
    222500   313.03965     -218733.1       0             -218273.96     -1487.5191    
    222600   312.0599      -218733.18      0             -218275.48     -1635.7661    
    222700   312.67564     -218730.17      0             -218271.56     -1173.6625    
    222800   314.67769     -218729.82      0             -218268.27     -654.00473    
    222900   314.95003     -218729.2       0             -218267.25      157.73217    
    223000   317.90194     -218732.27      0             -218266        -949.70813    
    223100   316.16822     -218733.12      0             -218269.39     -1482.7808    
    223200   314.01858     -218733.95      0             -218273.38     -716.62828    
    223300   315.22371     -218736.42      0             -218274.07     -578.04096    
    223400   315.73087     -218731.96      0             -218268.87     -748.84071    
    223500   314.69951     -218726.12      0             -218264.54     -598.7206     
    223600   316.26836     -218727.48      0             -218263.61     -829.17822    
    223700   316.10728     -218734.78      0             -218271.14     -1140.2432    
    223800   314.68308     -218738.22      0             -218276.67     -935.73247    
    223900   315.22649     -218737.16      0             -218274.81     -476.70794    
    224000   317.14967     -218733.02      0             -218267.86     -260.85772    
    224100   318.60913     -218732.51      0             -218265.2      -309.26596    
    224200   313.37483     -218726.95      0             -218267.32     -401.8824     
    224300   315.54572     -218732.2       0             -218269.39     -942.83807    
    224400   315.72884     -218734.5       0             -218271.42     -1613.5145    
    224500   309.679       -218725.91      0             -218271.7      -901.09987    
    224600   311.85718     -218729.59      0             -218272.19     -1161.5774    
    224700   316.11552     -218732.48      0             -218268.83     -1076.469     
    224800   314.80805     -218729.56      0             -218267.82     -1846.2915    
    224900   316.08544     -218732.52      0             -218268.92     -599.76544    
    225000   313.01085     -218733.43      0             -218274.33     -1827.2869    
    225100   313.10001     -218737.1       0             -218277.87     -1271.4726    
    225200   313.55665     -218734.99      0             -218275.09     -2150.258     
    225300   317.19769     -218730.14      0             -218264.9      -744.389      
    225400   314.9975      -218726.62      0             -218264.61     -412.66845    
    225500   316.02574     -218732.5       0             -218268.98     -693.66247    
    225600   312.48106     -218733.68      0             -218275.36     -1365.7211    
    225700   312.26229     -218733.31      0             -218275.31     -1117.525     
    225800   313.44117     -218732.73      0             -218273        -1189.4921    
    225900   315.50819     -218732.53      0             -218269.77     -1458.8114    
    226000   314.50585     -218730.12      0             -218268.83     -579.10154    
    226100   316.47383     -218732.01      0             -218267.84     -350.36276    
    226200   318.75657     -218731.28      0             -218263.75      236.96247    
    226300   320.00463     -218735.05      0             -218265.69     -99.837426    
    226400   311.42163     -218729.24      0             -218272.47     -1475.8445    
    226500   310.41246     -218730.76      0             -218275.48     -1164.3448    
    226600   316.63132     -218736.27      0             -218271.86     -755.00458    
    226700   319.76063     -218732.36      0             -218263.36     -860.97828    
    226800   321.40695     -218730.88      0             -218259.47     -169.69201    
    226900   314.74117     -218724.52      0             -218262.88     -140.93332    
    227000   314.251       -218729.08      0             -218268.17     -1512.1869    
    227100   314.23483     -218732.73      0             -218271.84     -750.24534    
    227200   311.55912     -218730.83      0             -218273.86     -401.89198    
    227300   315.58835     -218736.75      0             -218273.87     -2151.2374    
    227400   313.27069     -218727.43      0             -218267.95     -217.3537     
    227500   316.03492     -218726.61      0             -218263.08     -487.03052    
    227600   313.91406     -218726.4       0             -218265.98     -679.00715    
    227700   314.21895     -218733.82      0             -218272.95     -741.74018    
    227800   310.2271      -218731.56      0             -218276.55     -1323.7768    
    227900   314.8257      -218735.8       0             -218274.04     -1288.5455    
    228000   314.12223     -218732.28      0             -218271.55     -323.96678    
    228100   317.61945     -218734.32      0             -218268.47     -1809.6811    
    228200   320.13039     -218734.69      0             -218265.15     -1506.0271    
    228300   318.42333     -218728.65      0             -218261.61     -865.38128    
    228400   316.83135     -218727.17      0             -218262.47     -1173.8342    
    228500   311.18717     -218727.63      0             -218271.21     -1162.1919    
    228600   312.58247     -218731.66      0             -218273.19     -985.13927    
    228700   310.98213     -218727.84      0             -218271.71     -63.395875    
    228800   319.32212     -218733.77      0             -218265.41      155.25148    
    228900   319.94864     -218728.53      0             -218259.26     -340.01958    
    229000   316.01438     -218727.36      0             -218263.86     -331.35203    
    229100   316.12546     -218732.54      0             -218268.87     -730.4311     
    229200   312.62893     -218729.8       0             -218271.26     -72.883908    
    229300   315.84785     -218734.6       0             -218271.35      39.424647    
    229400   315.58131     -218731.53      0             -218268.67     -288.35728    
    229500   316.7732      -218728.58      0             -218263.96     -1067.1036    
    229600   315.31481     -218724.36      0             -218261.88     -215.94688    
    229700   313.74848     -218729.38      0             -218269.21      81.447546    
    229800   314.60409     -218736.69      0             -218275.25     -345.51799    
    229900   314.13028     -218735.15      0             -218274.41     -1249.2294    
    230000   316.93821     -218733.25      0             -218268.39     -73.608508    
    230100   317.77629     -218729.37      0             -218263.28     -876.78277    
    230200   315.70623     -218728.25      0             -218265.2      -880.11826    
    230300   319.53082     -218735.74      0             -218267.08     -1468.0135    
    230400   315.72024     -218732.91      0             -218269.84     -1359.5404    
    230500   316.91641     -218736.63      0             -218271.81      139.00536    
    230600   311.97353     -218736.93      0             -218279.35     -10.786627    
    230700   309.6026      -218736.62      0             -218282.52      343.15486    
    230800   314.4069      -218735.36      0             -218274.22     -313.6717     
    230900   315.59925     -218733.16      0             -218270.26     -537.82129    
    231000   313.42079     -218729.09      0             -218269.39      633.11754    
    231100   316.80004     -218732.74      0             -218268.08      255.03366    
    231200   313.94314     -218727.44      0             -218266.97     -574.30641    
    231300   315.01534     -218731.65      0             -218269.61     -494.09686    
    231400   315.78955     -218738.24      0             -218275.06     -1245.7712    
    231500   313.25063     -218736.51      0             -218277.06     -1940.954     
    231600   313.52886     -218730.3       0             -218270.44     -1250.5865    
    231700   314.91464     -218725.84      0             -218263.95     -984.8087     
    231800   315.65447     -218728.49      0             -218265.52     -1254.9374    
    231900   312.79985     -218728.32      0             -218269.54     -573.07212    
    232000   312.59534     -218733.12      0             -218274.63     -1107.6738    
    232100   312.21984     -218737.17      0             -218279.23     -1852.7358    
    232200   311.08692     -218741.16      0             -218284.88     -1251.9426    
    232300   316.22085     -218741.42      0             -218277.62     -475.21928    
    232400   315.83473     -218733.74      0             -218270.5      -176.67122    
    232500   313.89778     -218727.49      0             -218267.09     -445.71703    
    232600   316.13949     -218730.23      0             -218266.54     -712.92648    
    232700   313.92613     -218730.12      0             -218269.68     -102.96245    
    232800   315.85324     -218740.28      0             -218277.01     -1908.1108    
    232900   312.11616     -218735.3       0             -218277.52     -41.859678    
    233000   316.18019     -218733.94      0             -218270.2      -502.12266    
    233100   314.73761     -218726.46      0             -218264.83     -1130.5651    
    233200   315.37628     -218728.9       0             -218266.34     -611.378      
    233300   316.25048     -218734.28      0             -218270.43     -301.88668    
    233400   311.37912     -218732.52      0             -218275.81     -1468.5277    
    233500   314.66363     -218736.25      0             -218274.72     -718.06564    
    233600   319.43713     -218732.05      0             -218263.52      128.68754    
    233700   319.98583     -218731.18      0             -218261.85     -434.5909     
    233800   314.75057     -218728.52      0             -218266.87     -1968.6194    
    233900   314.83981     -218734.6       0             -218272.82     -1424.9407    
    234000   312.4382      -218731         0             -218272.74     -1088.646     
    234100   314.40797     -218731.61      0             -218270.46      504.15229    
    234200   315.45357     -218728.42      0             -218265.74     -36.40852     
    234300   320.85426     -218726.25      0             -218255.64     -334.55285    
    234400   315.53464     -218721.39      0             -218258.59      185.67802    
    234500   316.48331     -218728.79      0             -218264.6      -1227.28      
    234600   315.03709     -218730.81      0             -218268.74     -701.01925    
    234700   312.079       -218729.64      0             -218271.91     -1565.8238    
    234800   312.9589      -218733.28      0             -218274.26     -1623.0881    
    234900   316.73289     -218733.47      0             -218268.91     -746.18793    
    235000   319.47928     -218730.35      0             -218261.76     -920.05804    
    235100   318.83651     -218730.47      0             -218262.82      237.61078    
    235200   314.32001     -218731.27      0             -218270.25      268.44963    
    235300   316.67122     -218736.57      0             -218272.11     -249.94826    
    235400   313.6581      -218731.47      0             -218271.43     -150.2965     
    235500   316.39408     -218733.49      0             -218269.43     -740.99331    
    235600   319.88288     -218731.21      0             -218262.03     -629.38526    
    235700   320.14266     -218727.18      0             -218257.62     -1358.3944    
    235800   319.64368     -218732.98      0             -218264.15     -622.80488    
    235900   316.49798     -218731.98      0             -218267.77     -1530.301     
    236000   316.61185     -218734.32      0             -218269.94     -1165.9816    
    236100   310.96772     -218729.76      0             -218273.66     -175.1797     
    236200   315.77141     -218736.8       0             -218273.65      10.43426     
    236300   317.10658     -218731.52      0             -218266.42     -1587.6383    
    236400   319.29321     -218730.39      0             -218262.08     -728.92024    
    236500   313.98786     -218727.26      0             -218266.73     -451.51533    
    236600   315.07996     -218734.18      0             -218272.04     -652.50786    
    236700   314.81313     -218734.59      0             -218272.85      358.69356    
    236800   315.44629     -218734.06      0             -218271.39     -720.23234    
    236900   311.47994     -218726.76      0             -218269.91     -1496.3826    
    237000   316.59054     -218731.12      0             -218266.77      693.0066     
    237100   319.43193     -218727.7       0             -218259.18      810.72521    
    237200   319.69036     -218727.45      0             -218258.55     -627.91463    
    237300   315.53473     -218729.59      0             -218266.79     -587.10871    
    237400   314.67618     -218732.45      0             -218270.91     -307.83064    
    237500   316.95061     -218737.16      0             -218272.29     -558.22485    
    237600   314.83431     -218731.75      0             -218269.97     -839.03252    
    237700   318.6845      -218728.64      0             -218261.22     -1157.8207    
    237800   319.63543     -218729.43      0             -218260.62     -31.135689    
    237900   316.04144     -218729.52      0             -218265.98      50.739821    
    238000   313.3908      -218728.75      0             -218269.1      -521.31958    
    238100   316.54543     -218736.19      0             -218271.91     -152.31984    
    238200   315.19333     -218735.03      0             -218272.73      714.5753     
    238300   316.37654     -218734.04      0             -218270        -457.33964    
    238400   318.89538     -218731.24      0             -218263.51     -780.50264    
    238500   316.93717     -218727.92      0             -218263.06     -748.25065    
    238600   312.96419     -218730.12      0             -218271.1      -568.87086    
    238700   313.71516     -218733.57      0             -218273.44     -745.29508    
    238800   313.90136     -218732.11      0             -218271.7      -1326.9956    
    238900   314.33401     -218728.24      0             -218267.2      -852.70989    
    239000   315.64705     -218726.95      0             -218263.98     -1341.3123    
    239100   317.6254      -218732.98      0             -218267.12     -374.94736    
    239200   317.45021     -218740.88      0             -218275.27     -689.9374     
    239300   310.0271      -218732.15      0             -218277.43     -492.25425    
    239400   313.75        -218733.06      0             -218272.88     -51.947001    
    239500   316.2721      -218730.38      0             -218266.5      -634.6962     
    239600   317.72065     -218731.04      0             -218265.03     -230.07897    
    239700   317.60741     -218732.73      0             -218266.89     -678.30937    
    239800   313.79935     -218732.77      0             -218272.52     -850.38703    
    239900   313.2007      -218733.27      0             -218273.89     -545.56683    
    240000   316.02333     -218735.39      0             -218271.87     -618.29476    
    240100   314.38054     -218730.62      0             -218269.51     -719.16161    
    240200   313.93824     -218727.45      0             -218266.99     -1285.7033    
    240300   319.03867     -218733.28      0             -218265.34     -542.90216    
    240400   314.37527     -218730.04      0             -218268.95     -95.461234    
    240500   314.1534      -218736.73      0             -218275.95     -274.78495    
    240600   312.7083      -218735.09      0             -218276.44     -309.3689     
    240700   316.63656     -218733.79      0             -218269.38     -1123.3857    
    240800   318.54228     -218732.27      0             -218265.06     -1825.5458    
    240900   315.8866      -218730.45      0             -218267.14     -613.37418    
    241000   314.84526     -218733.08      0             -218271.29     -561.18878    
    241100   316.04475     -218737.92      0             -218274.38     -34.005796    
    241200   313.26234     -218735.96      0             -218276.49     -361.49507    
    241300   311.36782     -218732.23      0             -218275.55     -232.8716     
    241400   315.28076     -218730.37      0             -218267.95     -891.52307    
    241500   317.03836     -218730.39      0             -218265.38     -609.27268    
    241600   314.71169     -218728.56      0             -218266.97     -880.30619    
    241700   311.72249     -218732.35      0             -218275.15     -1178.9704    
    241800   313.79739     -218736.41      0             -218276.16     -1514.3278    
    241900   312.68077     -218731.82      0             -218273.21     -997.80655    
    242000   314.86193     -218732.88      0             -218271.06     -630.34035    
    242100   315.7012      -218732.17      0             -218269.13     -658.35907    
    242200   315.89258     -218730.74      0             -218267.42      1046.9425    
    242300   316.42238     -218731.41      0             -218267.31     -736.20098    
    242400   313.17299     -218729.22      0             -218269.88     -141.09711    
    242500   315.47782     -218736.37      0             -218273.65     -858.66265    
    242600   313.42036     -218735.35      0             -218275.65     -706.63146    
    242700   313.36902     -218731.42      0             -218271.8      -590.50475    
    242800   318.152       -218730.53      0             -218263.89     -994.08417    
    242900   319.05954     -218731.64      0             -218263.67      171.88823    
    243000   318.28675     -218735.24      0             -218268.4      -4.6742498    
    243100   316.1605      -218735.99      0             -218272.27     -1375.5527    
    243200   316.16564     -218735.74      0             -218272.02     -729.09354    
    243300   314.70173     -218733.48      0             -218271.9       187.20448    
    243400   315.58072     -218732.69      0             -218269.82     -1083.9291    
    243500   316.21764     -218728.54      0             -218264.74     -103.98636    
    243600   319.18078     -218726.91      0             -218258.77      245.12876    
    243700   319.17431     -218731.86      0             -218263.73     -311.96073    
    243800   311.12191     -218729.08      0             -218272.75     -686.86902    
    243900   314.89248     -218735.09      0             -218273.23      311.12488    
    244000   311.95807     -218727.51      0             -218269.96     -1014.5234    
    244100   319.85837     -218733.42      0             -218264.28     -864.85784    
    244200   318.96878     -218728.15      0             -218260.31     -428.32603    
    244300   315.19856     -218728.55      0             -218266.24     -312.13846    
    244400   316.62932     -218739.14      0             -218274.73     -704.46273    
    244500   310.62823     -218730.93      0             -218275.33     -754.49862    
    244600   319.33053     -218738.04      0             -218269.68     -1048.3588    
    244700   317.22402     -218729.42      0             -218264.14     -864.26954    
    244800   317.11385     -218728.65      0             -218263.53     -496.74199    
    244900   317.27609     -218733.92      0             -218268.57     -610.44497    
    245000   313.00793     -218731.5       0             -218272.41      71.009883    
    245100   313.29066     -218731.92      0             -218272.41     -1739.6183    
    245200   315.96522     -218733.49      0             -218270.06     -78.722137    
    245300   317.33221     -218732.35      0             -218266.92     -1286.4915    
    245400   316.36429     -218728.59      0             -218264.57     -770.3206     
    245500   313.77215     -218727.84      0             -218267.63      73.722849    
    245600   312.67794     -218733.5       0             -218274.89      124.41294    
    245700   309.79044     -218732.02      0             -218277.65     -566.10153    
    245800   313.2795      -218731.28      0             -218271.78     -342.05136    
    245900   316.67155     -218728.81      0             -218264.34     -1073.2762    
    246000   315.34068     -218729.02      0             -218266.51     -1658.0487    
    246100   317.93061     -218736.4       0             -218270.09     -1299.3981    
    246200   310.51938     -218730.59      0             -218275.15     -1157.3062    
    246300   311.17068     -218732.57      0             -218276.17     -1002.71      
    246400   314.24311     -218727.22      0             -218266.31     -922.08645    
    246500   316.42056     -218727.35      0             -218263.25     -1246.0214    
    246600   317.32104     -218730.82      0             -218265.4       14.509389    
    246700   315.52294     -218735.7       0             -218272.91     -2117.3203    
    246800   314.40745     -218734.91      0             -218273.76     -1496.7317    
    246900   315.42448     -218734.11      0             -218271.47     -1002.8776    
    247000   314.3659      -218729.03      0             -218267.94     -266.54831    
    247100   313.73369     -218723.98      0             -218263.82     -684.45383    
    247200   319.86195     -218726.59      0             -218257.44     -321.17034    
    247300   318.01682     -218725.84      0             -218259.4      -562.27471    
    247400   313.56142     -218728.59      0             -218268.69     -845.99992    
    247500   312.07619     -218730.41      0             -218272.68     -696.87655    
    247600   314.07248     -218734.9       0             -218274.25     -810.09163    
    247700   315.06519     -218732.44      0             -218270.33     -16.450223    
    247800   318.21739     -218729.42      0             -218262.69      461.26691    
    247900   318.05475     -218729.28      0             -218262.79     -668.17312    
    248000   317.59016     -218732.63      0             -218266.81     -1342.5395    
    248100   313.34457     -218728.74      0             -218269.16     -312.11311    
    248200   311.91398     -218728.69      0             -218271.21     -866.04553    
    248300   313.47851     -218731.24      0             -218271.45     -538.39447    
    248400   312.725       -218724.67      0             -218265.99     -155.27689    
    248500   317.63743     -218726         0             -218260.12     -1354.8511    
    248600   317.08777     -218729.55      0             -218264.47     -367.1362     
    248700   312.3008      -218729.59      0             -218271.53     -775.73368    
    248800   314.85052     -218733.88      0             -218272.08     -1955.7696    
    248900   315.55323     -218733.39      0             -218270.56     -351.16609    
    249000   317.91811     -218735.35      0             -218269.05     -1131.7227    
    249100   318.53608     -218734.32      0             -218267.12     -760.50787    
    249200   319.53467     -218735.13      0             -218266.46     -693.34819    
    249300   313.3524      -218729.91      0             -218270.32     -1093.6475    
    249400   313.6298      -218734.07      0             -218274.06     -1178.0923    
    249500   312.06137     -218731.97      0             -218274.26     -701.93115    
    249600   315.46517     -218731.28      0             -218268.58     -826.98365    
    249700   317.47925     -218728.18      0             -218262.52     -382.77991    
    249800   318.23171     -218731.44      0             -218264.68     -301.07928    
    249900   314.42467     -218733.07      0             -218271.9      -460.70419    
    250000   315.53278     -218737.47      0             -218274.67     -950.99659    
    250100   311.3002      -218730.24      0             -218273.65     -136.47283    
    250200   316.65488     -218735.45      0             -218271.01     -1432.6293    
    250300   317.62413     -218731.98      0             -218266.11     -623.00507    
    250400   320.19481     -218730.12      0             -218260.48     -1508.2164    
    250500   320.07682     -218725.04      0             -218255.58     -2002.0698    
    250600   319.40874     -218731.18      0             -218262.7      -1129.1694    
    250700   316.25893     -218733.74      0             -218269.87     -658.97157    
    250800   313.92783     -218733.29      0             -218272.85     -707.46452    
    250900   315.03058     -218735.71      0             -218273.65     -607.02363    
    251000   314.32578     -218730.7       0             -218269.67     -534.45768    
    251100   315.88439     -218726.16      0             -218262.84     -2258.3818    
    251200   316.20562     -218727.01      0             -218263.22     -1752.5482    
    251300   316.26902     -218737.35      0             -218273.47     -760.77307    
    251400   314.37488     -218736.59      0             -218275.49     -849.34896    
    251500   314.50088     -218734.29      0             -218273        -1919.6501    
    251600   316.75192     -218732.79      0             -218268.2       50.928988    
    251700   317.26437     -218729.74      0             -218264.4       164.0061     
    251800   316.45913     -218726.84      0             -218262.69     -751.59883    
    251900   314.92688     -218728.89      0             -218266.98     -698.044      
    252000   315.29261     -218736.04      0             -218273.59      27.887449    
    252100   313.28604     -218735.02      0             -218275.51     -1119.2027    
    252200   315.59529     -218733.56      0             -218270.67     -522.26556    
    252300   316.03515     -218726.36      0             -218262.82     -1265.495     
    252400   321.87321     -218734.91      0             -218262.82     -952.43423    
    252500   313.18442     -218726.29      0             -218266.94     -860.65473    
    252600   317.30396     -218736.03      0             -218270.63     -1339.326     
    252700   314.35167     -218735.46      0             -218274.4      -941.13863    
    252800   313.35564     -218733.51      0             -218273.91     -990.84666    
    252900   313.68135     -218722.9       0             -218262.81     -895.36259    
    253000   318.36636     -218728.98      0             -218262.02     -1772.568     
    253100   316.4272      -218732.62      0             -218268.51     -1277.5646    
    253200   311.41149     -218729.37      0             -218272.62     -313.61872    
    253300   317.30915     -218738.07      0             -218272.67     -278.89639    
    253400   314.91283     -218731.63      0             -218269.75     -1234.7685    
    253500   318.73161     -218727.12      0             -218259.63     -1449.9303    
    253600   318.37476     -218728.59      0             -218261.63     -394.60756    
    253700   316.21338     -218731.73      0             -218267.93     -1109.5326    
    253800   312.11587     -218728.64      0             -218270.85     -1269.1547    
    253900   314.61345     -218732.74      0             -218271.29     -1262.2489    
    254000   311.52682     -218727.72      0             -218270.8      -984.23031    
    254100   317.30823     -218731.54      0             -218266.14     -199.70333    
    254200   315.01701     -218724.43      0             -218262.39     -1017.4104    
    254300   315.11104     -218726.86      0             -218264.69     -611.89686    
    254400   311.23492     -218729.5       0             -218273.01     -502.11521    
    254500   313.84375     -218735.19      0             -218274.87     -795.96768    
    254600   315.04721     -218734.8       0             -218272.71     -579.79552    
    254700   312.91698     -218727.57      0             -218268.61     -569.68236    
    254800   317.85487     -218726.75      0             -218260.55     -301.8943     
    254900   318.15062     -218721.57      0             -218254.94     -77.596062    
    255000   319.37592     -218729.74      0             -218261.31     -629.22999    
    255100   317.76291     -218732.97      0             -218266.9      -611.69332    
    255200   310.96393     -218727.7       0             -218271.61     -764.89335    
    255300   312.82137     -218731.99      0             -218273.17     -1109.3817    
    255400   314.01079     -218732.23      0             -218271.67     -990.50021    
    255500   319.8762      -218732.73      0             -218263.57     -282.29165    
    255600   320.76782     -218730.99      0             -218260.52     -363.51026    
    255700   313.14305     -218725.7       0             -218266.41     -1304.2666    
    255800   312.64591     -218730.24      0             -218271.68     -518.89764    
    255900   309.10525     -218726.11      0             -218272.75     -2074.879     
    256000   314.61417     -218731.99      0             -218270.54     -199.03927    
    256100   316.97414     -218731.44      0             -218266.53     -1229.6484    
    256200   318.07628     -218727.13      0             -218260.6      -1840.6873    
    256300   321.55807     -218731.42      0             -218259.79     -1170.3418    
    256400   316.3837      -218734.11      0             -218270.06     -1187.1688    
    256500   314.81477     -218733.99      0             -218272.25     -1055.7985    
    256600   317.30018     -218738.5       0             -218273.12     -390.59987    
    256700   313.97767     -218731.58      0             -218271.06     -1784.4795    
    256800   315.08301     -218725.33      0             -218263.2      -810.99491    
    256900   318.40331     -218728.73      0             -218261.72     -751.65213    
    257000   311.57829     -218724.17      0             -218267.17     -1191.9874    
    257100   316.25717     -218732.74      0             -218268.88     -781.83468    
    257200   314.54945     -218732.35      0             -218271        -1877.1013    
    257300   313.21397     -218731.15      0             -218271.75     -1189.3769    
    257400   316.15991     -218732.35      0             -218268.64     -923.91568    
    257500   316.76943     -218726.63      0             -218262.01      107.74679    
    257600   317.33433     -218727.16      0             -218261.72      204.67781    
    257700   312.41254     -218728.44      0             -218270.22     -1192.2853    
    257800   314.47987     -218734.94      0             -218273.69     -822.18182    
    257900   313.33648     -218731.93      0             -218272.36     -775.38719    
    258000   313.98813     -218729.22      0             -218268.69     -1147.3576    
    258100   314.84669     -218723.3       0             -218261.51     -983.20157    
    258200   319.1903      -218727.97      0             -218259.81     -539.39264    
    258300   315.59328     -218734.34      0             -218271.46     -1387.0304    
    258400   312.45742     -218731.71      0             -218273.42     -1861.2229    
    258500   312.53714     -218728.63      0             -218270.23     -1909.1069    
    258600   317.67936     -218731.09      0             -218265.14     -260.05889    
    258700   316.28174     -218726.92      0             -218263.02     -1271.7206    
    258800   318.39011     -218733.72      0             -218266.73     -1837.3896    
    258900   313.2902      -218735.74      0             -218276.23     -931.55997    
    259000   312.56962     -218734.71      0             -218276.26     -658.5447     
    259100   316.39821     -218734.94      0             -218270.87      326.82478    
    259200   320.96343     -218735.97      0             -218265.21      26.192898    
    259300   315.99717     -218729.23      0             -218265.75      863.59812    
    259400   314.02695     -218729.32      0             -218268.73      380.69792    
    259500   314.83665     -218732         0             -218270.22      177.14838    
    259600   316.04098     -218734.51      0             -218270.97     -2101.7589    
    259700   314.80899     -218732.92      0             -218271.19     -1339.0327    
    259800   317.91824     -218732.27      0             -218265.97     -905.5363     
    259900   314.33382     -218722.1       0             -218261.06     -359.29898    
    260000   318.24914     -218732.04      0             -218265.26      588.29412    
    260100   313.94815     -218732.65      0             -218272.17     -439.61984    
    260200   313.49149     -218733.58      0             -218273.78     -108.37247    
    260300   315.36979     -218733.13      0             -218270.58     -489.90672    
    260400   314.83773     -218727.02      0             -218265.24     -1032.0122    
    260500   319.08315     -218725.15      0             -218257.15     -2522.4802    
    260600   318.83592     -218721.14      0             -218253.49     -906.46233    
    260700   317.22012     -218727.67      0             -218262.4      -798.12403    
    260800   315.73494     -218730.94      0             -218267.84      219.73372    
    260900   315.3162      -218734.99      0             -218272.51     -71.013786    
    261000   315.44702     -218736.97      0             -218274.3       197.41044    
    261100   312.91905     -218732.39      0             -218273.43     -1757.271     
    261200   319.52502     -218735.11      0             -218266.46     -1635.9394    
    261300   317.52278     -218728.05      0             -218262.33     -72.275987    
    261400   318.72682     -218732.35      0             -218264.87     -986.512      
    261500   315.35515     -218735.21      0             -218272.67     -854.21487    
    261600   312.52726     -218731.65      0             -218273.26     -1012.0761    
    261700   314.15687     -218731.2       0             -218270.42     -924.00583    
    261800   312.76354     -218724.61      0             -218265.87     -172.35099    
    261900   321.93629     -218731.16      0             -218258.97     -375.87107    
    262000   316.97091     -218724.52      0             -218259.62     -1406.2092    
    262100   316.46672     -218735.08      0             -218270.91     -1485.6075    
    262200   312.04413     -218731.75      0             -218274.07     -1020.1897    
    262300   313.03418     -218730.99      0             -218271.86     -701.65915    
    262400   316.70855     -218730.96      0             -218266.44     -348.4369     
    262500   316.97537     -218728.66      0             -218263.75     -558.82414    
    262600   318.10179     -218733.46      0             -218266.89     -1227.1956    
    262700   312.40604     -218733.45      0             -218275.24      211.54431    
    262800   314.23812     -218738.7       0             -218277.81     -241.43925    
    262900   312.6236      -218731.25      0             -218272.72     -1322.1711    
    263000   318.37057     -218733.16      0             -218266.2      -1231.6322    
    263100   318.07983     -218732.29      0             -218265.75     -697.4127     
    263200   318.92639     -218736.23      0             -218268.46     -393.54485    
    263300   311.45398     -218730.63      0             -218273.81     -884.88002    
    263400   312.34082     -218735.22      0             -218277.11     -1269.371     
    263500   310.15304     -218736.77      0             -218281.86     -1027.7193    
    263600   312.97641     -218736.69      0             -218277.65      17.559744    
    263700   312.2378      -218727.8       0             -218269.83     -405.51298    
    263800   315.95729     -218730.34      0             -218266.92     -1435.5077    
    263900   313.1996      -218728.05      0             -218268.68     -1367.3085    
    264000   308.86984     -218728.59      0             -218275.56     -345.95662    
    264100   313.09234     -218737.13      0             -218277.92     -639.70053    
    264200   317.69713     -218738.06      0             -218272.08     -1528.6202    
    264300   317.6121      -218730.31      0             -218264.46     -2533.7676    
    264400   319.52878     -218733.24      0             -218264.58     -673.34747    
    264500   314.10213     -218731.29      0             -218270.59     -793.01169    
    264600   315.1099      -218738.32      0             -218276.15     -1214.8385    
    264700   313.19483     -218734.37      0             -218275        -309.69431    
    264800   313.519       -218732.03      0             -218272.19     -58.72417     
    264900   312.31812     -218727.55      0             -218269.47     -866.36055    
    265000   316.0421      -218732         0             -218268.46     -348.25213    
    265100   314.7056      -218730.49      0             -218268.91     -462.41235    
    265200   318.11434     -218736.18      0             -218269.6      -1363.3299    
    265300   315.04982     -218733.14      0             -218271.06      223.26918    
    265400   316.28028     -218734.92      0             -218271.03      274.77619    
    265500   316.99618     -218733.07      0             -218268.13      337.52993    
    265600   319.93262     -218730.22      0             -218260.97     -342.44385    
    265700   316.6697      -218725.31      0             -218260.85     -1217.4003    
    265800   313.1189      -218728.3       0             -218269.04     -861.34541    
    265900   315.1942      -218734.67      0             -218272.37     -1571.3421    
    266000   314.37207     -218733.73      0             -218272.64     -172.47685    
    266100   315.86755     -218733.48      0             -218270.19     -1343.1723    
    266200   315.9933      -218728.67      0             -218265.2      -1320.3539    
    266300   315.13792     -218720.86      0             -218258.64     -1984.3406    
    266400   318.55667     -218727.85      0             -218260.62     -2320.5438    
    266500   314.53187     -218731.51      0             -218270.18     -1383.3179    
    266600   315.39822     -218735.14      0             -218272.54     -1617.2653    
    266700   310.17317     -218728.76      0             -218273.83     -672.1981     
    266800   314.64043     -218730.62      0             -218269.13     -1693.943     
    266900   317.75875     -218728.21      0             -218262.15     -1000.4766    
    267000   315.90708     -218726.49      0             -218263.14     -613.76182    
    267100   313.47975     -218731.37      0             -218271.59     -311.91692    
    267200   314.93579     -218735.28      0             -218273.36     -2173.6708    
    267300   315.29586     -218734.13      0             -218271.68     -1498.4955    
    267400   313.58614     -218727.96      0             -218268.02     -551.53513    
    267500   313.94274     -218725.4       0             -218264.94     -605.67837    
    267600   313.92403     -218727.13      0             -218266.69     -619.09134    
    267700   311.86467     -218732.64      0             -218275.23     -1687.0175    
    267800   311.66121     -218734.13      0             -218277.01     -732.16103    
    267900   314.4923      -218733.97      0             -218272.7       262.75408    
    268000   316.86489     -218731.36      0             -218266.61     -940.00903    
    268100   315.09892     -218728.06      0             -218265.9      -1104.049     
    268200   318.28371     -218735.64      0             -218268.81     -907.52767    
    268300   313.99702     -218733.2       0             -218272.65     -1077.7524    
    268400   313.04431     -218733.16      0             -218274.01     -1431.908     
    268500   314.91808     -218732.7       0             -218270.81     -2311.501     
    268600   315.66539     -218726.97      0             -218263.98     -1415.2896    
    268700   315.7053      -218726.94      0             -218263.89     -1340.1323    
    268800   314.26262     -218731.41      0             -218270.47     -616.07314    
    268900   313.70154     -218734.7       0             -218274.59     -572.34095    
    269000   315.52883     -218736.55      0             -218273.76     -872.18281    
    269100   310.8945      -218727.76      0             -218271.76     -1132.0731    
    269200   313.33222     -218729.57      0             -218270        -1405.6286    
    269300   313.56417     -218729.55      0             -218269.64     -491.97315    
    269400   311.85181     -218730.27      0             -218272.87     -1338.0217    
    269500   313.2631      -218737.49      0             -218278.02     -1184.2831    
    269600   314.11827     -218740.18      0             -218279.46     -1476.2676    
    269700   315.75756     -218734.31      0             -218271.18     -1383.4048    
    269800   316.57309     -218731.33      0             -218267.01     -37.244662    
    269900   315.93887     -218730.21      0             -218266.82     -437.9424     
    270000   314.64013     -218732.5       0             -218271.02     -573.42173    
    270100   311.26589     -218734.89      0             -218278.35     -1408.0172    
    270200   309.86268     -218731.71      0             -218277.23     -1430.7477    
    270300   313.33159     -218730.68      0             -218271.11     -1391.2447    
    270400   319.01931     -218737.37      0             -218269.46     -1639.7752    
    270500   315.42286     -218731.74      0             -218269.11     -527.44952    
    270600   317.27947     -218734.2       0             -218268.84     -735.34232    
    270700   311.54783     -218728.07      0             -218271.12     -761.32329    
    270800   315.20182     -218735.02      0             -218272.71     -819.79298    
    270900   313.22711     -218732.65      0             -218273.24     -1197.2538    
    271000   314.89839     -218731.88      0             -218270.02     -853.82497    
    271100   315.57843     -218726.78      0             -218263.92     -1629.2501    
    271200   320.37478     -218730.39      0             -218260.49     -989.44733    
    271300   315.94459     -218730.89      0             -218267.49     -1074.2284    
    271400   314.22425     -218733.8       0             -218272.92     -1080.9583    
    271500   312.36845     -218730.05      0             -218271.9      -464.82192    
    271600   317.45882     -218733.11      0             -218267.49     -413.77855    
    271700   318.94392     -218732.5       0             -218264.7      -655.28534    
    271800   314.79052     -218728.98      0             -218267.27     -1066.7957    
    271900   309.87714     -218730.16      0             -218275.65     -850.43131    
    272000   312.43668     -218734.93      0             -218276.67     -1520.9405    
    272100   312.60291     -218730.16      0             -218271.66     -424.44404    
    272200   316.97497     -218730.46      0             -218265.55     -218.72887    
    272300   317.93716     -218732.36      0             -218266.03     -279.73413    
    272400   317.63861     -218734         0             -218268.12     -287.97363    
    272500   314.91317     -218734.89      0             -218273        -344.39147    
    272600   311.72978     -218734.63      0             -218277.41      10.567172    
    272700   310.2728      -218734.03      0             -218278.95     -800.5996     
    272800   317.30146     -218737.07      0             -218271.68     -805.72163    
    272900   315.83592     -218728.61      0             -218265.37     -1026.8551    
    273000   314.66104     -218726.42      0             -218264.9      -1425.3675    
    273100   317.88353     -218733.68      0             -218267.44     -117.58434    
    273200   314.08723     -218736.78      0             -218276.1      -400.55385    
    273300   312.71086     -218736.8       0             -218278.14     -625.10913    
    273400   312.08807     -218731.3       0             -218273.55      636.44211    
    273500   316.01563     -218732.74      0             -218269.23      749.61737    
    273600   312.40144     -218726.7       0             -218268.49     -1123.1367    
    273700   313.89152     -218728.42      0             -218268.03     -564.43299    
    273800   314.29794     -218733.69      0             -218272.71     -2014.1684    
    273900   311.72428     -218736.84      0             -218279.62     -1415.494     
    274000   312.06449     -218734.54      0             -218276.83     -1377.7838    
    274100   314.85768     -218730.5       0             -218268.7      -1772.4695    
    274200   318.11824     -218733.75      0             -218267.16     -1199.7998    
    274300   318.75222     -218733.88      0             -218266.36     -1030.6719    
    274400   316.21881     -218734.1       0             -218270.3      -1272.1031    
    274500   310.88243     -218733.93      0             -218277.96     -425.18246    
    274600   311.70039     -218734.66      0             -218277.48     -710.62959    
    274700   316.16473     -218733         0             -218269.28      801.40243    
    274800   317.33191     -218731.86      0             -218266.42     -40.552373    
    274900   314.06644     -218729.26      0             -218268.61     -1121.2356    
    275000   315.28492     -218734.54      0             -218272.11     -162.28013    
    275100   314.17102     -218735.86      0             -218275.06     -232.41679    
    275200   314.41599     -218737.45      0             -218276.3      -400.57455    
    275300   316.46653     -218734.25      0             -218270.08     -571.06932    
    275400   316.82736     -218729.22      0             -218264.52     -518.51172    
    275500   318.52996     -218732.46      0             -218265.27     -749.98518    
    275600   311.17958     -218729.53      0             -218273.12     -960.87367    
    275700   312.68551     -218735.6       0             -218276.98     -938.64157    
    275800   311.9115      -218732.2       0             -218274.72     -1098.5535    
    275900   318.27749     -218736.5       0             -218269.67     -417.81477    
    276000   314.78003     -218728.54      0             -218266.85     -412.54542    
    276100   314.18746     -218728.99      0             -218268.17     -1593.7535    
    276200   315.99344     -218737.48      0             -218274        -1633.258     
    276300   308.0626      -218735.63      0             -218283.79     -131.79016    
    276400   309.40823     -218733.4       0             -218279.59     -672.1068     
    276500   312.0614      -218730.26      0             -218272.55     -220.27059    
    276600   316.80061     -218733.21      0             -218268.56      323.6996     
    276700   317.15231     -218732.43      0             -218267.25     -624.9178     
    276800   316.08515     -218734.68      0             -218271.07     -1090.6683    
    276900   312.80193     -218738.44      0             -218279.65     -961.67682    
    277000   307.11486     -218728.92      0             -218278.47     -333.06383    
    277100   314.48385     -218734.99      0             -218273.73     -784.98544    
    277200   316.62537     -218734.96      0             -218270.56     -359.68177    
    277300   314.87        -218730.69      0             -218268.87     -354.65788    
    277400   312.70546     -218727.54      0             -218268.89     -654.4793     
    277500   312.70853     -218730.44      0             -218271.78     -1525.6218    
    277600   310.12907     -218732.67      0             -218277.8      -220.72799    
    277700   312.21853     -218735.15      0             -218277.22     -1130.0447    
    277800   314.30037     -218730.11      0             -218269.12     -894.45026    
    277900   319.76908     -218733.66      0             -218264.65     -456.217      
    278000   315.0345      -218729.36      0             -218267.3       153.49248    
    278100   309.7055      -218726.05      0             -218271.8      -535.58182    
    278200   314.01972     -218736.18      0             -218275.6      -320.8308     
    278300   314.49137     -218737.99      0             -218276.72     -274.41866    
    278400   315.24413     -218735.45      0             -218273.07     -563.0322     
    278500   318.37215     -218732.93      0             -218265.96     -328.20084    
    278600   317.71566     -218728.85      0             -218262.85      588.29355    
    278700   317.03596     -218732.9       0             -218267.9      -689.80223    
    278800   313.59578     -218734.07      0             -218274.11     -1473.1471    
    278900   314.59638     -218734.91      0             -218273.49     -570.5483     
    279000   314.09586     -218730.74      0             -218270.05     -1133.5017    
    279100   317.09683     -218732.05      0             -218266.96     -944.51447    
    279200   313.02445     -218727.46      0             -218268.34     -661.93331    
    279300   310.48368     -218731.05      0             -218275.66     -1036.7183    
    279400   308.13583     -218729.55      0             -218277.6      -1062.5372    
    279500   312.54083     -218730.79      0             -218272.38     -1335.4554    
    279600   317.45104     -218731.31      0             -218265.7      -628.21747    
    279700   319.35422     -218734.36      0             -218265.96     -373.68711    
    279800   315.01525     -218732.12      0             -218270.08     -960.12885    
    279900   314.17835     -218734.47      0             -218273.66     -1274.1051    
    280000   315.20022     -218737.57      0             -218275.26     -835.45836    
    280100   313.24093     -218734.73      0             -218275.3      -384.89686    
    280200   316.87053     -218735.92      0             -218271.16      22.453447    
    280300   315.55264     -218728.9       0             -218266.07     -615.00981    
    280400   316.15085     -218727.3       0             -218263.59     -1045.3809    
    280500   315.89973     -218731.24      0             -218267.9      -888.9263     
    280600   313.37967     -218735.51      0             -218275.87     -934.30925    
    280700   312.43723     -218734.59      0             -218276.34     -616.05652    
    280800   315.03033     -218734.63      0             -218272.57     -129.33547    
    280900   314.70521     -218731.17      0             -218269.59     -115.72362    
    281000   316.75259     -218732.37      0             -218267.78     -343.29929    
    281100   320.10611     -218737.94      0             -218268.43      301.50121    
    281200   314.5873      -218731.71      0             -218270.3      -1086.2087    
    281300   315.52944     -218733.66      0             -218270.87     -1535.3143    
    281400   314.13427     -218731.87      0             -218271.12     -1991.3586    
    281500   314.3756      -218731.11      0             -218270.01     -1891.8899    
    281600   319.20891     -218731.64      0             -218263.46     -1098.3995    
    281700   318.84997     -218732.23      0             -218264.57      26.997878    
    281800   314.01413     -218732.98      0             -218272.41     -972.11787    
    281900   315.68996     -218737.68      0             -218274.66      1.8689388    
    282000   314.34627     -218734.32      0             -218273.27     -99.98191     
    282100   314.95261     -218731.45      0             -218269.5      -67.667468    
    282200   315.69847     -218731.66      0             -218268.62     -728.36246    
    282300   315.92312     -218732.56      0             -218269.19     -335.98823    
    282400   310.97997     -218725.92      0             -218269.81     -429.22831    
    282500   318.00574     -218736.85      0             -218270.43      131.93332    
    282600   317.57008     -218737.39      0             -218271.61     -188.02126    
    282700   313.55039     -218737.07      0             -218277.18     -295.22937    
    282800   311.62701     -218738.47      0             -218281.4      -291.4489     
    282900   314.99027     -218736.32      0             -218274.32     -402.86437    
    283000   313.02157     -218728.49      0             -218269.38     -919.56759    
    283100   317.09219     -218733.1       0             -218268.02     -1324.2651    
    283200   312.62731     -218729.37      0             -218270.84     -33.602409    
    283300   312.46466     -218735.44      0             -218277.14     -490.63235    
    283400   312.99733     -218737.76      0             -218278.68     -531.81695    
    283500   312.53542     -218729.29      0             -218270.89     -143.02399    
    283600   317.41092     -218730.36      0             -218264.81     -821.58635    
    283700   316.81005     -218731.51      0             -218266.84     -498.67003    
    283800   316.50457     -218737.03      0             -218272.81     -1030.5263    
    283900   312.58811     -218735.78      0             -218277.31     -316.71301    
    284000   312.22806     -218733.31      0             -218275.36     -15.587507    
    284100   319.42146     -218733.9       0             -218265.4      -86.62185     
    284200   318.86466     -218731.78      0             -218264.09     -593.229      
    284300   316.8166      -218732.56      0             -218267.88     -58.952943    
    284400   316.38964     -218736.89      0             -218272.84     -115.86489    
    284500   311.89237     -218734.2       0             -218276.75     -983.42194    
    284600   313.65954     -218734.81      0             -218274.76     -1835.8857    
    284700   315.28005     -218727.36      0             -218264.94     -1600.0435    
    284800   319.10699     -218731.71      0             -218263.67     -548.74541    
    284900   317.96418     -218735.23      0             -218268.87     -1214.8732    
    285000   314.03624     -218733.99      0             -218273.39     -872.03829    
    285100   312.68121     -218732.59      0             -218273.98     -762.46236    
    285200   315.48478     -218735.07      0             -218272.35     -1151.4612    
    285300   314.65818     -218733.39      0             -218271.87     -704.67096    
    285400   317.1657      -218735.08      0             -218269.89     -1096.4767    
    285500   316.11458     -218732.25      0             -218268.6      -1472.2186    
    285600   315.2755      -218726.99      0             -218264.57     -661.36348    
    285700   318.56437     -218727.97      0             -218260.73     -821.48664    
    285800   318.36936     -218732.01      0             -218265.05      184.22533    
    285900   313.22893     -218731.79      0             -218272.37     -1145.7686    
    286000   313.38249     -218733.85      0             -218274.21     -1132.8196    
    286100   313.20757     -218730         0             -218270.61     -1468.1606    
    286200   317.31605     -218728.4       0             -218262.99     -563.66704    
    286300   315.23044     -218724.1       0             -218261.75     -1426.6687    
    286400   313.15275     -218730.14      0             -218270.84     -495.76797    
    286500   314.7671      -218737.42      0             -218275.74     -744.08032    
    286600   314.79336     -218734.23      0             -218272.52     -1408.6822    
    286700   314.50921     -218728.91      0             -218267.61     -1331.8623    
    286800   319.33325     -218732.03      0             -218263.65     -1090.4969    
    286900   317.07183     -218731.23      0             -218266.17     -642.64358    
    287000   313.61138     -218734.35      0             -218274.37     -1007.5274    
    287100   315.03378     -218737.82      0             -218275.76     -884.42074    
    287200   312.23501     -218731.22      0             -218273.26     -1970.9848    
    287300   315.68412     -218733.6       0             -218270.58     -653.34609    
    287400   315.05236     -218731.93      0             -218269.84     -645.46429    
    287500   312.09174     -218728.6       0             -218270.85      313.41333    
    287600   314.71161     -218733.86      0             -218272.27      46.268626    
    287700   313.73779     -218737.94      0             -218277.77     -13.004212    
    287800   314.57761     -218741.04      0             -218279.64     -496.55856    
    287900   315.1698      -218734.88      0             -218272.61     -515.9423     
    288000   317.17582     -218733.17      0             -218267.96     -979.46183    
    288100   316.88497     -218732.31      0             -218267.53     -265.85416    
    288200   317.05541     -218734.09      0             -218269.06     -483.19055    
    288300   311.83339     -218735.35      0             -218277.97     -844.82833    
    288400   312.45538     -218738.63      0             -218280.35     -747.08966    
    288500   314.50334     -218735.35      0             -218274.06     -59.711144    
    288600   316.39771     -218734.37      0             -218270.3       189.53466    
    288700   314.17676     -218729.53      0             -218268.72     -837.1857     
    288800   315.57643     -218731.55      0             -218268.69     -556.72364    
    288900   312.19512     -218732.13      0             -218274.23     -1511.5372    
    289000   309.66386     -218736.75      0             -218282.56     -999.6657     
    289100   311.91598     -218736.81      0             -218279.31     -719.42995    
    289200   314.09303     -218734.08      0             -218273.4      -1054.464     
    289300   309.47891     -218724.07      0             -218270.16     -1360.0948    
    289400   314.11304     -218728.77      0             -218268.06      199.3818     
    289500   315.40919     -218730.13      0             -218267.51     -782.85662    
    289600   312.79958     -218731.26      0             -218272.47     -1696.0143    
    289700   311.69226     -218735.58      0             -218278.42     -733.12953    
    289800   311.97318     -218734.2       0             -218276.62     -889.86837    
    289900   316.92268     -218733.9       0             -218269.07     -1138.7359    
    290000   316.76162     -218730.98      0             -218266.38     -1831.5915    
    290100   319.83832     -218736.81      0             -218267.69     -1380.3565    
    290200   313.62208     -218730.35      0             -218270.36     -903.1878     
    290300   314.55868     -218734.02      0             -218272.66     -1842.7885    
    290400   313.62524     -218734.01      0             -218274.01     -1384.3624    
    290500   316.89112     -218738.27      0             -218273.48     -1854.0972    
    290600   316.91322     -218733.27      0             -218268.45     -703.9086     
    290700   317.12805     -218729.54      0             -218264.41     -378.46443    
    290800   317.72132     -218733.84      0             -218267.83     -1349.4805    
    290900   313.23788     -218734.37      0             -218274.94     -2230.5417    
    291000   312.60359     -218734.51      0             -218276.01     -307.78719    
    291100   313.58691     -218733.31      0             -218273.36     -871.15309    
    291200   314.68047     -218732.23      0             -218270.69     -375.43778    
    291300   317.21946     -218735.04      0             -218269.77     -837.32486    
    291400   312.60429     -218728.88      0             -218270.38     -2063.5501    
    291500   316.81733     -218735.77      0             -218271.09     -1391.8294    
    291600   311.73348     -218729.56      0             -218272.33     -1311.1906    
    291700   312.90358     -218730.74      0             -218271.8      -1094.2516    
    291800   316.59171     -218730.02      0             -218265.67     -674.29835    
    291900   320.5022      -218727.49      0             -218257.41     -1188.1324    
    292000   315.65481     -218725.66      0             -218262.68     -998.34439    
    292100   314.36925     -218731.72      0             -218270.63     -1232.8025    
    292200   314.52586     -218735.15      0             -218273.83     -1104.6885    
    292300   313.69053     -218734.45      0             -218274.36     -686.03252    
    292400   312.11265     -218731.03      0             -218273.25     -206.0122     
    292500   317.84849     -218732.53      0             -218266.34     -1084.5335    
    292600   318.64756     -218730.51      0             -218263.14     -552.4806     
    292700   314.23012     -218730.63      0             -218269.74     -312.84404    
    292800   316.37074     -218739.83      0             -218275.8      -1207.7569    
    292900   314.67345     -218735.93      0             -218274.4      -1547.4419    
    293000   316.97017     -218735.45      0             -218270.55     -1368.5599    
    293100   317.23545     -218732.06      0             -218266.76     -1710.3607    
    293200   317.61002     -218724.48      0             -218258.64     -2180.9033    
    293300   319.43172     -218727.28      0             -218258.77     -421.04643    
    293400   311.91562     -218727.25      0             -218269.76     -1204.2237    
    293500   314.96788     -218734.82      0             -218272.86     -743.95763    
    293600   312.9469      -218731.38      0             -218272.37     -172.38686    
    293700   317.17433     -218735.7       0             -218270.49     -178.08909    
    293800   317.00161     -218732.68      0             -218267.73      101.72793    
    293900   317.42205     -218733.38      0             -218267.81     -481.67294    
    294000   312.71849     -218732.56      0             -218273.89     -867.88087    
    294100   314.14187     -218739.02      0             -218278.26     -459.83736    
    294200   315.56427     -218737.95      0             -218275.1       55.603621    
    294300   314.44682     -218727.13      0             -218265.92     -649.51923    
    294400   311.5512      -218723.39      0             -218266.43     -699.07082    
    294500   318.77448     -218736.94      0             -218269.39     -1250.7267    
    294600   317.9953      -218740.73      0             -218274.33     -1469.6901    
    294700   314.03804     -218739.02      0             -218278.42     -1193.6906    
    294800   312.52912     -218737.99      0             -218279.6      -637.10234    
    294900   314.46101     -218733.95      0             -218272.72     -1821.982     
    295000   316.40743     -218730.86      0             -218266.78     -1613.0245    
    295100   318.3277      -218732.6       0             -218265.7       211.92303    
    295200   315.62765     -218734.35      0             -218271.41     -203.31524    
    295300   315.44953     -218740.25      0             -218277.58     -741.12507    
    295400   312.78168     -218733.94      0             -218275.18     -1466.1765    
    295500   317.69998     -218737.14      0             -218271.17     -928.40879    
    295600   316.72188     -218734.95      0             -218270.41     -194.50092    
    295700   315.65968     -218732.9       0             -218269.92     -297.14021    
    295800   313.53576     -218728.79      0             -218268.92     -1741.9632    
    295900   315.04313     -218728.39      0             -218266.31     -600.09412    
    296000   315.49991     -218731.3       0             -218268.56     -874.68306    
    296100   313.59417     -218734.28      0             -218274.32     -624.42233    
    296200   312.7602      -218735.36      0             -218276.63     -802.43201    
    296300   313.85834     -218733.08      0             -218272.74     -1347.0098    
    296400   315.25987     -218726.72      0             -218264.33     -696.76148    
    296500   317.45274     -218730         0             -218264.39     -1138.6194    
    296600   317.81898     -218734.79      0             -218268.64     -1082.4717    
    296700   313.99156     -218733.67      0             -218273.13     -282.19465    
    296800   316.24592     -218737.57      0             -218273.73     -1112.7197    
    296900   317.44505     -218738.54      0             -218272.94     -764.01386    
    297000   317.32542     -218735.56      0             -218270.14     -1562.2025    
    297100   315.45724     -218728.23      0             -218265.54     -1652.6241    
    297200   316.65585     -218723.78      0             -218259.34     -1570.3695    
    297300   318.95584     -218725.78      0             -218257.96     -1228.5947    
    297400   315.92373     -218732.3       0             -218268.93     -836.83262    
    297500   314.17855     -218734.36      0             -218273.55     -1398.548     
    297600   312.91197     -218733.33      0             -218274.37     -1648.2441    
    297700   315.84346     -218733.13      0             -218269.88     -743.84158    
    297800   318.83465     -218733.57      0             -218265.94     -1019.5949    
    297900   317.08506     -218730.21      0             -218265.14     -1255.6315    
    298000   314.85269     -218733.31      0             -218271.51     -300.12981    
    298100   311.75615     -218735.56      0             -218278.3      -982.31667    
    298200   312.50968     -218735.68      0             -218277.32     -1617.7759    
    298300   316.16102     -218734.74      0             -218271.02     -896.40377    
    298400   314.41109     -218727.6       0             -218266.45     -1833.2413    
    298500   315.25929     -218729.09      0             -218266.7      -987.68314    
    298600   315.44678     -218731.24      0             -218268.57     -1088.087     
    298700   313.98664     -218732.68      0             -218272.15     -1242.8747    
    298800   314.97699     -218736.54      0             -218274.56     -742.95195    
    298900   312.62809     -218733.7       0             -218275.17     -736.13681    
    299000   313.91532     -218733.57      0             -218273.14     -668.42176    
    299100   315.95703     -218730.95      0             -218267.53     -1635.7735    
    299200   313.81832     -218725.78      0             -218265.49     -1559.723     
    299300   316.69747     -218733.71      0             -218269.2      -939.69515    
    299400   314.74414     -218739.01      0             -218277.37     -965.08863    
    299500   314.57701     -218738.93      0             -218277.54     -865.05255    
    299600   317.12217     -218739.13      0             -218274         364.92119    
    299700   316.32021     -218735.53      0             -218271.58      261.23309    
    299800   316.64455     -218735.53      0             -218271.1      -482.94869    
    299900   313.66333     -218730.13      0             -218270.07      37.427338    
    300000   313.08547     -218727.2       0             -218267.99      81.475794    
    300100   314.5385      -218724.4       0             -218263.06     -431.34772    
    300200   316.82113     -218726.92      0             -218262.23     -1288.7314    
    300300   312.48737     -218729.13      0             -218270.8      -1202.4064    
    300400   313.91505     -218734.27      0             -218273.85     -874.27108    
    300500   314.39378     -218735.52      0             -218274.39      1.5386077    
    300600   316.45844     -218734.41      0             -218270.26     -1286.4337    
    300700   313.93497     -218722.43      0             -218261.98     -1596.6007    
    300800   315.15557     -218725.49      0             -218263.24     -1412.6423    
    300900   313.24183     -218727.99      0             -218268.55     -1347.0163    
    301000   317.84283     -218735.97      0             -218269.78     -1308.8346    
    301100   314.82727     -218733.97      0             -218272.21     -142.79186    
    301200   315.70349     -218737.21      0             -218274.16     -948.84613    
    301300   312.96852     -218735.34      0             -218276.31     -801.65299    
    301400   314.66094     -218736.24      0             -218274.72     -403.14907    
    301500   315.50693     -218732.2       0             -218269.44     -1018.7763    
    301600   317.64991     -218730.11      0             -218264.21     -846.64612    
    301700   317.88113     -218732.15      0             -218265.91     -426.4022     
    301800   313.31543     -218735.45      0             -218275.9      -922.39009    
    301900   310.8266      -218734.08      0             -218278.18     -1318.4576    
    302000   313.60394     -218734.62      0             -218274.65     -422.16954    
    302100   316.45877     -218733.26      0             -218269.11     -370.28033    
    302200   310.8848      -218723.04      0             -218267.06     -1221.5228    
    302300   317.57358     -218734.45      0             -218268.66     -771.77545    
    302400   311.28647     -218735.34      0             -218278.77     -926.52831    
    302500   312.77353     -218741.37      0             -218282.62     -1462.2147    
    302600   310.75768     -218732.19      0             -218276.39     -1712.0169    
    302700   316.15086     -218733.34      0             -218269.64     -1091.8984    
    302800   315.84557     -218731.3       0             -218268.05     -624.74034    
    302900   312.1644      -218729.23      0             -218271.37      227.08456    
    303000   313.39215     -218737.7       0             -218278.04     -637.78512    
    303100   314.78246     -218743.13      0             -218281.43     -931.35693    
    303200   317.91152     -218740.29      0             -218274.01     -626.37839    
    303300   315.32063     -218728.77      0             -218266.28     -1317.7002    
    303400   317.02647     -218730.73      0             -218265.75     -2019.0407    
    303500   318.26563     -218737.01      0             -218270.21     -1257.2176    
    303600   313.25568     -218735.57      0             -218276.12     -658.22614    
    303700   313.02436     -218736.58      0             -218277.46     -1411.9644    
    303800   315.84509     -218732.93      0             -218269.67     -144.72098    
    303900   319.92723     -218733.17      0             -218263.93     -398.61722    
    304000   311.76902     -218724.92      0             -218267.64     -843.38613    
    304100   315.80144     -218736.36      0             -218273.17     -1168.9374    
    304200   316.44144     -218741.34      0             -218277.21     -1431.5565    
    304300   312.99885     -218735.27      0             -218276.19     -1246.0455    
    304400   316.96679     -218729.81      0             -218264.91     -848.9773     
    304500   317.56906     -218728.79      0             -218263.01     -1596.2677    
    304600   316.99095     -218732.87      0             -218267.94     -1288.3401    
    304700   313.4148      -218733.97      0             -218274.28      163.87848    
    304800   311.94222     -218731.97      0             -218274.44     -2191.9148    
    304900   312.29386     -218729.68      0             -218271.64     -1428.728     
    305000   316.63546     -218733.6       0             -218269.19     -771.56932    
    305100   315.86904     -218732.1       0             -218268.81     -1217.5367    
    305200   315.63679     -218732.76      0             -218269.81     -1183.7949    
    305300   315.09453     -218733.68      0             -218271.53      636.72386    
    305400   312.1605      -218732.61      0             -218274.76      182.76445    
    305500   309.78132     -218732.82      0             -218278.46     -706.13223    
    305600   311.93975     -218737.47      0             -218279.94     -1935.1017    
    305700   315.32342     -218736.06      0             -218273.57     -911.5191     
    305800   316.55027     -218732.05      0             -218267.76      165.99354    
    305900   317.74128     -218733.29      0             -218267.26      299.95547    
    306000   315.61224     -218734.68      0             -218271.77     -378.8164     
    306100   312.76827     -218738.13      0             -218279.38     -923.23836    
    306200   314.88803     -218739.75      0             -218277.9      -961.47727    
    306300   315.10086     -218737.24      0             -218275.07     -928.93354    
    306400   315.32554     -218733.3       0             -218270.8      -1118.3359    
    306500   315.3448      -218729.87      0             -218267.35     -776.21816    
    306600   317.48549     -218731.98      0             -218266.31     -700.04335    
    306700   310.69296     -218730.92      0             -218275.22     -747.64126    
    306800   309.84549     -218733.78      0             -218279.32     -1466.0195    
    306900   312.99123     -218734.71      0             -218275.64     -1434.1686    
    307000   312.90624     -218726.93      0             -218267.99     -810.67736    
    307100   315.73921     -218730.11      0             -218267.01     -817.82859    
    307200   316.99484     -218734.06      0             -218269.12     -483.28199    
    307300   314.76469     -218734.92      0             -218273.25     -1436.9938    
    307400   313.82468     -218737.27      0             -218276.98     -813.03502    
    307500   310.31253     -218739.09      0             -218283.95     -361.31106    
    307600   312.5321      -218740.86      0             -218282.47     -1680.7234    
    307700   316.04047     -218737.14      0             -218273.6      -2150.7891    
    307800   314.22099     -218730.13      0             -218269.26     -1067.7217    
    307900   317.5947      -218733.73      0             -218267.91     -1052.0469    
    308000   312.86934     -218728.81      0             -218269.92     -2101.6154    
    308100   310.71488     -218733.14      0             -218277.41     -1742.6658    
    308200   311.94882     -218737.6       0             -218280.06     -338.89277    
    308300   312.35639     -218732.15      0             -218274.01     -7.9601601    
    308400   315.3104      -218730.6       0             -218268.13     -162.86208    
    308500   315.31059     -218731.7       0             -218269.23     -780.54135    
    308600   316.10153     -218735.07      0             -218271.44     -1138.4402    
    308700   312.73784     -218732.22      0             -218273.52     -204.26856    
    308800   312.61066     -218734.38      0             -218275.87     -1015.0847    
    308900   314.69605     -218735.44      0             -218273.87     -1011.9632    
    309000   314.65723     -218728.97      0             -218267.45     -875.50127    
    309100   316.84636     -218729.14      0             -218264.42     -1667.8121    
    309200   312.41434     -218727.12      0             -218268.9      -1564.5153    
    309300   312.60947     -218735.77      0             -218277.26     -1949.4584    
    309400   314.22511     -218737.49      0             -218276.61     -383.14265    
    309500   315.24933     -218733.98      0             -218271.6      -2064.0794    
    309600   313.84397     -218728.49      0             -218268.17     -925.28651    
    309700   316.92123     -218733.75      0             -218268.92     -1000.1632    
    309800   312.2652      -218731.33      0             -218273.32     -1655.5404    
    309900   309.88885     -218736.08      0             -218281.56     -1222.6668    
    310000   309.84803     -218741.67      0             -218287.22     -1193.8399    
    310100   313.23964     -218738.88      0             -218279.44     -1391.8669    
    310200   313.28929     -218732.2       0             -218272.69     -543.99835    
    310300   314.35297     -218729.46      0             -218268.39     -1304.8782    
    310400   319.22285     -218736.25      0             -218268.04     -1667.5376    
    310500   315.05776     -218735.09      0             -218272.99     -1140.8679    
    310600   311.22045     -218735.19      0             -218278.72     -1953.3744    
    310700   311.99305     -218733.91      0             -218276.3      -1783.3995    
    310800   316.37302     -218735.86      0             -218271.83     -1673.2398    
    310900   316.28348     -218735.14      0             -218271.25     -1381.7136    
    311000   316.34469     -218735.8       0             -218271.82     -1176.0743    
    311100   315.40969     -218736.18      0             -218273.56     -1034.1048    
    311200   314.17221     -218736.22      0             -218275.42     -1187.7049    
    311300   313.24174     -218733.12      0             -218273.68     -1615.6858    
    311400   320.81488     -218737.75      0             -218267.21     -416.65748    
    311500   317.19556     -218730.83      0             -218265.6      -321.63886    
    311600   308.81799     -218725.26      0             -218272.31     -310.69209    
    311700   312.91614     -218736.98      0             -218278.02     -1767.138     
    311800   312.12897     -218733.93      0             -218276.12     -906.40024    
    311900   311.03881     -218728.94      0             -218272.73     -633.34938    
    312000   315.97343     -218732.5       0             -218269.06     -1341.3146    
    312100   317.80605     -218734.31      0             -218268.18     -1295.2262    
    312200   318.0918      -218737.1       0             -218270.55     -462.50528    
    312300   315.80264     -218735.18      0             -218271.99     -1034.5012    
    312400   312.19279     -218729.73      0             -218271.83     -1037.5652    
    312500   316.65491     -218735.86      0             -218271.42     -1213.8602    
    312600   313.11678     -218730.42      0             -218271.17     -892.19141    
    312700   317.21455     -218736.22      0             -218270.96     -415.48288    
    312800   315.37652     -218733.41      0             -218270.84     -795.11028    
    312900   313.475       -218731.29      0             -218271.51     -1085.0139    
    313000   315.15407     -218735.85      0             -218273.61     -1073.1562    
    313100   314.29021     -218734.88      0             -218273.9      -1464.4606    
    313200   312.0556      -218730.11      0             -218272.41     -1635.8332    
    313300   313.08503     -218726.55      0             -218267.34     -1960.146     
    313400   318.80509     -218731.06      0             -218263.47     -2137.7371    
    313500   315.82487     -218732.78      0             -218269.55     -639.63508    
    313600   315.95679     -218739.35      0             -218275.93     -143.00289    
    313700   312.74253     -218733.69      0             -218274.98     -763.4396     
    313800   315.62961     -218734.7       0             -218271.76     -1055.2362    
    313900   315.782       -218729.05      0             -218265.88     -1554.2933    
    314000   319.99076     -218727.53      0             -218258.19     -746.9        
    314100   319.73877     -218731.31      0             -218262.34     -610.75931    
    314200   314.09964     -218731.26      0             -218270.57     -1671.7733    
    314300   312.43826     -218730.88      0             -218272.62     -689.50003    
    314400   314.66078     -218734.54      0             -218273.02     -1410.78      
    314500   314.63815     -218731.65      0             -218270.16     -1395.8846    
    314600   319.86098     -218734.86      0             -218265.72     -1371.4407    
    314700   318.79093     -218733.03      0             -218265.45     -1461.376     
    314800   313.93782     -218735.14      0             -218274.68     -781.92624    
    314900   313.42024     -218737.29      0             -218277.59     -1330.5405    
    315000   313.32114     -218733.42      0             -218273.87     -612.2332     
    315100   317.17009     -218733.21      0             -218268.01     -861.25809    
    315200   315.22392     -218730.51      0             -218268.17     -672.55824    
    315300   312.96945     -218729.06      0             -218270.02     -138.88534    
    315400   313.0971      -218730.75      0             -218271.53     -1746.9853    
    315500   313.58714     -218733.16      0             -218273.22     -116.83988    
    315600   311.15703     -218731.8       0             -218275.42     -433.97467    
    315700   313.77528     -218735.44      0             -218275.22     -760.2359     
    315800   313.83449     -218731.06      0             -218270.75     -1526.42      
    315900   312.66628     -218724.3       0             -218265.7      -1122.8878    
    316000   315.47774     -218728.22      0             -218265.5      -1623.7063    
    316100   312.07276     -218732.32      0             -218274.6      -853.77874    
    316200   314.97941     -218739.53      0             -218277.54     -622.23918    
    316300   317.78618     -218740.34      0             -218274.24     -1107.7782    
    316400   316.56305     -218734.42      0             -218270.11     -809.186      
    316500   314.17223     -218727.48      0             -218266.68     -270.30137    
    316600   316.58311     -218725.68      0             -218261.34     -1605.1027    
    316700   318.11052     -218727.4       0             -218260.82     -938.90364    
    316800   312.86251     -218727.59      0             -218268.71     -1058.0715    
    316900   313.65691     -218734.25      0             -218274.21     -810.89462    
    317000   314.13164     -218735.61      0             -218274.87     -960.92261    
    317100   315.77549     -218733.86      0             -218270.71     -1679.9071    
    317200   316.93835     -218728.54      0             -218263.68     -833.52592    
    317300   317.59306     -218729.09      0             -218263.27     -947.74728    
    317400   313.41076     -218734.2       0             -218274.51     -1375.1494    
    317500   314.08603     -218737.4       0             -218276.73     -708.05654    
    317600   315.01731     -218735.06      0             -218273.02     -273.37581    
    317700   319.19967     -218736.89      0             -218268.72     -1475.2034    
    317800   317.21873     -218731.39      0             -218266.12     -1005.8393    
    317900   312.69523     -218729.84      0             -218271.21     -583.33045    
    318000   315.04628     -218739.88      0             -218277.8      -1163.5663    
    318100   315.50941     -218741.49      0             -218278.73     -434.28916    
    318200   317.0655      -218737.76      0             -218272.71     -818.2169     
    318300   315.27336     -218730.56      0             -218268.14     -313.9743     
    318400   315.91678     -218732.68      0             -218269.32     -926.97588    
    318500   312.9391      -218731.3       0             -218272.3      -1372.892     
    318600   313.81893     -218735.06      0             -218274.78     -1182.9701    
    318700   312.09811     -218736.64      0             -218278.89     -1792.6067    
    318800   314.76058     -218741.51      0             -218279.84     -1461.669     
    318900   313.19012     -218731.89      0             -218272.53      181.19346    
    319000   317.27393     -218732.2       0             -218266.85     -1528.9654    
    319100   317.38585     -218732.22      0             -218266.71     -1208.2993    
    319200   313.94105     -218732.45      0             -218271.99     -1888.8174    
    319300   313.02779     -218738.59      0             -218279.47     -1080.7243    
    319400   311.65101     -218736.17      0             -218279.07      44.054943    
    319500   311.95784     -218733.74      0             -218276.18     -136.47452    
    319600   313.86119     -218732.15      0             -218271.8      -440.89204    
    319700   317.58629     -218734.56      0             -218268.75     -1219.9053    
    319800   315.30031     -218731.56      0             -218269.1      -1564.7181    
    319900   310.80279     -218734.37      0             -218278.51     -308.29158    
    320000   309.87653     -218734.6       0             -218280.1      -817.37161    
    320100   312.13833     -218731.22      0             -218273.4      -1292.4783    
    320200   313.56665     -218729.55      0             -218269.64     -1167.5526    
    320300   312.61275     -218728.42      0             -218269.91     -296.76625    
    320400   314.1862      -218732.21      0             -218271.39     -396.15604    
    320500   312.76659     -218735.9       0             -218277.16     -539.09306    
    320600   309.24396     -218736.8       0             -218283.23     -100.48324    
    320700   312.51639     -218736.93      0             -218278.55     -782.68109    
    320800   314.72761     -218732.93      0             -218271.31     -1618.142     
    320900   316.49713     -218734.31      0             -218270.1      -726.5759     
    321000   314.15928     -218731.95      0             -218271.17     -497.00006    
    321100   312.54325     -218733.39      0             -218274.98     -1209.9566    
    321200   311.61034     -218735.02      0             -218277.97     -1954.347     
    321300   312.6051      -218734.71      0             -218276.21     -1544.9655    
    321400   317.21374     -218733.03      0             -218267.77     -727.46259    
    321500   316.64699     -218730.13      0             -218265.7      -1747.4574    
    321600   314.38782     -218730.78      0             -218269.67     -1877.0947    
    321700   313.70215     -218735.5       0             -218275.39     -712.30206    
    321800   314.72493     -218739.34      0             -218277.73     -208.31935    
    321900   317.77258     -218734.87      0             -218268.79     -777.37218    
    322000   316.53039     -218726.43      0             -218262.17     -1811.5151    
    322100   318.06726     -218733.04      0             -218266.53     -454.07326    
    322200   313.22885     -218733.01      0             -218273.59     -1825.3558    
    322300   311.19391     -218732.09      0             -218275.66     -216.64359    
    322400   313.92725     -218733.7       0             -218273.26     -999.35356    
    322500   315.36222     -218727.27      0             -218264.72     -564.59206    
    322600   316.15186     -218725.27      0             -218261.56     -1182.8687    
    322700   316.83854     -218731.01      0             -218266.3      -803.28387    
    322800   316.4191      -218733.62      0             -218269.52     -1581.579     
    322900   314.4518      -218731.66      0             -218270.45     -846.02035    
    323000   312.79972     -218730.02      0             -218271.23     -779.35683    
    323100   313.87046     -218734.47      0             -218274.11     -1399.6165    
    323200   312.96717     -218738.27      0             -218279.24     -205.18707    
    323300   310.12139     -218734.65      0             -218279.79      196.1658     
    323400   314.61628     -218733.66      0             -218272.21     -822.81667    
    323500   318.00781     -218733.31      0             -218266.88     -1479.2433    
    323600   314.18743     -218728.9       0             -218268.08     -811.15555    
    323700   312.66196     -218730.51      0             -218271.92     -1031.6641    
    323800   312.78844     -218734.06      0             -218275.28     -2385.7616    
    323900   310.19733     -218738.28      0             -218283.31     -731.11188    
    324000   309.76141     -218739.79      0             -218285.46     -351.44       
    324100   313.15873     -218736.15      0             -218276.84     -1251.6137    
    324200   312.60996     -218730.32      0             -218271.81     -1143.3291    
    324300   313.50123     -218729.27      0             -218269.46     -872.49353    
    324400   318.53606     -218734.59      0             -218267.38     -545.2686     
    324500   312.49267     -218728.55      0             -218270.21     -130.89638    
    324600   311.29551     -218733.92      0             -218277.34     -539.88407    
    324700   315.88701     -218743.77      0             -218280.46     -254.26397    
    324800   315.80898     -218739.12      0             -218275.92     -1364.3639    
    324900   316.0913      -218730.67      0             -218267.06     -1422.2062    
    325000   320.49857     -218737.25      0             -218267.17     -1497.3455    
    325100   312.31058     -218729.46      0             -218271.39     -488.28994    
    325200   314.09898     -218737.41      0             -218276.72     -555.16305    
    325300   312.36747     -218734.73      0             -218276.58     -574.03342    
    325400   313.85809     -218726.34      0             -218266        -998.11728    
    325500   319.40727     -218731.86      0             -218263.38     -1911.6104    
    325600   312.65224     -218726.75      0             -218268.18     -1877.0159    
    325700   313.45944     -218733.34      0             -218273.59     -853.18615    
    325800   313.70698     -218736.13      0             -218276.01     -696.32337    
    325900   312.73586     -218733.19      0             -218274.5      -762.36332    
    326000   314.04799     -218731.67      0             -218271.06     -759.86064    
    326100   311.24753     -218727.36      0             -218270.84     -1292.1778    
    326200   318.04364     -218737.27      0             -218270.79     -984.2117     
    326300   315.75933     -218736.78      0             -218273.65     -776.33476    
    326400   315.88637     -218740.56      0             -218277.24     -870.29399    
    326500   313.98398     -218739.51      0             -218278.98     -997.80133    
    326600   315.67119     -218737.45      0             -218274.45     -1625.2255    
    326700   319.47158     -218735.57      0             -218267        -1063.4727    
    326800   315.64416     -218728.67      0             -218265.71     -1054.8286    
    326900   314.55579     -218731.36      0             -218270        -1792.9089    
    327000   310.70524     -218734.01      0             -218278.29     -1690.2769    
    327100   313.36921     -218736.41      0             -218276.79     -1508.0087    
    327200   312.5379      -218731.75      0             -218273.35     -1005.017     
    327300   319.30611     -218736.37      0             -218268.04     -1012.5432    
    327400   317.84565     -218732.85      0             -218266.66      222.18623    
    327500   316.09923     -218734.41      0             -218270.78     -950.12739    
    327600   315.78542     -218739.28      0             -218276.11      476.65599    
    327700   308.86711     -218741.51      0             -218288.49     -325.67589    
    327800   310.21415     -218738.83      0             -218283.83     -15.969664    
    327900   313.42866     -218735.54      0             -218275.83     -386.76972    
    328000   315.38381     -218732.57      0             -218269.99     -892.93756    
    328100   313.12346     -218726.46      0             -218267.19     -600.71353    
    328200   315.38682     -218729.31      0             -218266.73     -1196.1116    
    328300   312.70828     -218733.08      0             -218274.43     -269.82565    
    328400   307.77889     -218730.55      0             -218279.13     -1658.7105    
    328500   310.99579     -218731.3       0             -218275.16     -773.00787    
    328600   313.0091      -218730.82      0             -218271.72     -230.04066    
    328700   313.45335     -218729.92      0             -218270.18     -470.02472    
    328800   316.81598     -218733.67      0             -218268.99     -149.21541    
    328900   310.30852     -218726.32      0             -218271.18     -1282.3625    
    329000   312.59018     -218737.8       0             -218279.32     -1075.1412    
    329100   311.55085     -218739.93      0             -218282.97     -1016.4364    
    329200   313.53426     -218736.56      0             -218276.69     -1062.9093    
    329300   314.55746     -218732.74      0             -218271.37     -1368.8517    
    329400   313.05714     -218729.24      0             -218270.07     -1106.6097    
    329500   315.86493     -218733         0             -218269.71     -1195.8174    
    329600   314.28671     -218733.35      0             -218272.38     -193.7682     
    329700   311.78202     -218736.38      0             -218279.09     -1139.0711    
    329800   312.73416     -218737.87      0             -218279.18     -2319.1806    
    329900   314.43147     -218731.44      0             -218270.26     -1350.3903    
    330000   314.95874     -218729.22      0             -218267.26     -869.10131    
    330100   314.07852     -218730.03      0             -218269.37     -913.58415    
    330200   312.48583     -218731.5       0             -218273.17     -864.6501     
    330300   310.77645     -218735.5       0             -218279.68     -1060.606     
    330400   312.08483     -218741.73      0             -218283.99     -903.97487    
    330500   315.35188     -218736.89      0             -218274.36     -592.72845    
    330600   317.69725     -218734.26      0             -218268.29     -259.57806    
    330700   315.75348     -218731.19      0             -218268.07      157.91863    
    330800   311.32198     -218729.27      0             -218272.65     -868.90819    
    330900   312.67962     -218735.79      0             -218277.18      81.532751    
    331000   310.45925     -218733.7       0             -218278.34     -1706.7618    
    331100   315.76699     -218731.75      0             -218268.61     -1404.3689    
    331200   318.71337     -218732.47      0             -218265.01     -1567.9686    
    331300   316.53544     -218732.7       0             -218268.44     -1045.8409    
    331400   313.05266     -218733.68      0             -218274.52     -1473.5928    
    331500   316.20969     -218739.3       0             -218275.52     -1519.0119    
    331600   314.06681     -218733.27      0             -218272.63     -725.84385    
    331700   316.62747     -218727.08      0             -218262.68     -596.12615    
    331800   318.45721     -218726.12      0             -218259.04     -386.12965    
    331900   315.58934     -218729.24      0             -218266.36     -855.02788    
    332000   313.96878     -218732.44      0             -218271.94     -1052.1625    
    332100   315.15645     -218735.54      0             -218273.3      -470.42533    
    332200   314.9687      -218736.67      0             -218274.7      -1750.4115    
    332300   314.16966     -218732.52      0             -218271.72     -1880.5656    
    332400   315.34799     -218727.7       0             -218265.18     -1691.0858    
    332500   315.45055     -218726.92      0             -218264.25     -768.15332    
    332600   315.21332     -218733.97      0             -218271.64      151.92351    
    332700   312.03267     -218734.59      0             -218276.93     -1232.7847    
    332800   313.50604     -218734.8       0             -218274.97     -2182.7171    
    332900   318.06192     -218737         0             -218270.49     -1227.7165    
    333000   316.60926     -218731.96      0             -218267.58     -2015.277     
    333100   314.57599     -218729.98      0             -218268.59     -616.56106    
    333200   313.3848      -218734.78      0             -218275.14     -1264.1535    
    333300   316.20452     -218742.42      0             -218278.64     -1362.3063    
    333400   312.97073     -218735.54      0             -218276.5       42.2147      
    333500   316.47363     -218733.02      0             -218268.84     -880.04435    
    333600   315.02186     -218728         0             -218265.95     -1176.1199    
    333700   316.31909     -218731.8       0             -218267.85     -696.97585    
    333800   317.77991     -218737.12      0             -218271.02     -1442.5279    
    333900   315.55387     -218735.25      0             -218272.42     -1795.7636    
    334000   314.80361     -218733.7       0             -218271.97     -1115.4622    
    334100   317.09436     -218734.93      0             -218269.84     -441.28335    
    334200   316.06446     -218730.76      0             -218267.18     -1285.847     
    334300   315.24341     -218725.63      0             -218263.26     -2607.7457    
    334400   312.41016     -218724.67      0             -218266.46     -654.09895    
    334500   317.76141     -218740.42      0             -218274.35     -888.28354    
    334600   310.21245     -218731.58      0             -218276.59     -472.49842    
    334700   312.63538     -218733.06      0             -218274.52     -401.70987    
    334800   314.92029     -218728.62      0             -218266.72      240.9561     
    334900   318.27952     -218728.66      0             -218261.83     -1378.4946    
    335000   315.12772     -218727.5       0             -218265.29     -840.5116     
    335100   314.60381     -218731.08      0             -218269.65     -679.38585    
    335200   314.45142     -218734.02      0             -218272.81     -1017.7257    
    335300   312.70919     -218734.35      0             -218275.69     -1766.7977    
    335400   314.14214     -218734.06      0             -218273.31     -1541.3992    
    335500   317.52116     -218731.07      0             -218265.36     -1197.9784    
    335600   320.00641     -218733         0             -218263.64     -133.62745    
    335700   315.38021     -218732.63      0             -218270.06     -1056.7225    
    335800   310.05359     -218730.09      0             -218275.33     -1155.6255    
    335900   312.50941     -218732.67      0             -218274.31     -186.4931     
    336000   315.95217     -218735.21      0             -218271.8      -1038.6626    
    336100   319.63506     -218735.52      0             -218266.71     -1285.5713    
    336200   316.41687     -218727.08      0             -218262.99     -1473.833     
    336300   320.84347     -218730.08      0             -218259.49     -1024.3205    
    336400   316.79981     -218731.1       0             -218266.45     -892.17685    
    336500   312.16345     -218730.85      0             -218273        -687.52262    
    336600   315.31054     -218737.52      0             -218275.04     -954.97819    
    336700   316.33382     -218736.65      0             -218272.68     -820.8018     
    336800   320.9294      -218737.72      0             -218267.01     -452.50735    
    336900   319.10234     -218729.36      0             -218261.32     -535.91297    
    337000   318.52883     -218729.91      0             -218262.72     -672.48589    
    337100   313.12369     -218732.62      0             -218273.35     -477.48745    
    337200   311.21945     -218731.17      0             -218274.7      -1299.0074    
    337300   313.51274     -218731.84      0             -218272.01     -869.84641    
    337400   317.1043      -218732.24      0             -218267.14     -514.20563    
    337500   317.72461     -218728.43      0             -218262.42     -1494.9165    
    337600   313.05658     -218726.9       0             -218267.74     -1577.6176    
    337700   313.55692     -218735.64      0             -218275.74     -489.29633    
    337800   312.19423     -218733.59      0             -218275.69     -1183.4503    
    337900   315.44796     -218733.19      0             -218270.52     -1411.1097    
    338000   316.97988     -218729.94      0             -218265.02     -1246.1335    
    338100   318.60279     -218733.96      0             -218266.66     -1454.65      
    338200   314.04017     -218732.48      0             -218271.87     -1191.6628    
    338300   315.40898     -218736.58      0             -218273.97      604.87042    
    338400   314.36152     -218733.9       0             -218272.82     -667.17123    
    338500   311.95588     -218727.21      0             -218269.66     -1256.823     
    338600   316.39041     -218730.65      0             -218266.59     -1267.9649    
    338700   315.29711     -218729.49      0             -218267.04     -874.28365    
    338800   311.37693     -218731.56      0             -218274.86     -2443.8205    
    338900   313.45912     -218738.27      0             -218278.52     -1781.7448    
    339000   316.77225     -218739.8       0             -218275.19     -1559.9742    
    339100   315.53795     -218732.15      0             -218269.34     -609.45254    
    339200   314.72809     -218729.5       0             -218267.88     -377.1856     
    339300   314.34054     -218731.01      0             -218269.96     -1118.1059    
    339400   317.26026     -218737.25      0             -218271.92     -1652.7189    
    339500   311.18076     -218733.17      0             -218276.75     -1525.4512    
    339600   311.19938     -218736.86      0             -218280.42     -243.41134    
    339700   312.05405     -218731.47      0             -218273.78     -546.47127    
    339800   318.874       -218734.71      0             -218267.01     -1254.8586    
    339900   318.8691      -218735.87      0             -218268.18      26.654146    
    340000   311.14164     -218729.5       0             -218273.14     -1159.2365    
    340100   313.54263     -218737.29      0             -218277.41     -813.91102    
    340200   308.40839     -218733.96      0             -218281.61     -487.18428    
    340300   311.01561     -218736.56      0             -218280.39      741.89125    
    340400   316.72993     -218735.89      0             -218271.34     -136.99096    
    340500   314.12345     -218728.37      0             -218267.64     -102.96446    
    340600   318.10947     -218734.17      0             -218267.6      -976.52249    
    340700   315.80448     -218737.44      0             -218274.25     -1572.6072    
    340800   311.53223     -218736.58      0             -218279.65     -466.23643    
    340900   312.83639     -218736.17      0             -218277.33     -827.72419    
    341000   313.29063     -218731.55      0             -218272.04     -1913.0383    
    341100   313.25991     -218730.29      0             -218270.83     -1736.9786    
    341200   313.61153     -218729.89      0             -218269.91     -1418.3323    
    341300   312.9098      -218729.04      0             -218270.1      -788.58698    
    341400   312.40125     -218732.97      0             -218274.76     -70.128379    
    341500   312.8479      -218737.71      0             -218278.85     -408.68184    
    341600   311.73329     -218735.85      0             -218278.62      476.30417    
    341700   319.59668     -218737.43      0             -218268.67      179.6001     
    341800   318.24243     -218733.45      0             -218266.68     -660.02588    
    341900   314.31861     -218731.45      0             -218270.44     -881.53939    
    342000   315.34185     -218738.16      0             -218275.65     -969.75891    
    342100   312.42941     -218737.87      0             -218279.63     -1153.3207    
    342200   316.16905     -218737.8       0             -218274.07      102.39277    
    342300   316.76102     -218731.61      0             -218267.01     -474.32558    
    342400   316.95948     -218729.56      0             -218264.67     -1015.6708    
    342500   315.44993     -218732.63      0             -218269.96     -598.91725    
    342600   315.0687      -218738.4       0             -218276.29     -492.04826    
    342700   314.96442     -218737.58      0             -218275.62     -702.19812    
    342800   312.01515     -218730.93      0             -218273.29     -625.0477     
    342900   317.63867     -218735.9       0             -218270.02     -1378.9182    
    343000   314.43156     -218731.49      0             -218270.31     -882.16889    
    343100   315.93182     -218734.53      0             -218271.15     -1942.4105    
    343200   317.228       -218737.86      0             -218272.57     -1320.9947    
    343300   313.02132     -218733.35      0             -218274.24     -1825.8832    
    343400   310.64279     -218734.38      0             -218278.75     -919.58108    
    343500   309.83191     -218732.99      0             -218278.55     -959.11018    
    343600   311.85279     -218728.91      0             -218271.51     -2610.2097    
    343700   315.38546     -218729.56      0             -218266.98     -1332.4569    
    343800   312.73976     -218727.18      0             -218268.48     -1064.9911    
    343900   314.2012      -218734.84      0             -218274         78.249685    
    344000   311.67967     -218740.29      0             -218283.14     -366.09342    
    344100   311.58245     -218739.65      0             -218282.64      26.903284    
    344200   310.12165     -218732.75      0             -218277.89      336.68582    
    344300   316.67737     -218736.7       0             -218272.23     -961.20084    
    344400   315.15668     -218729.28      0             -218267.03     -549.6929     
    344500   316.63595     -218731.46      0             -218267.04      73.285615    
    344600   316.21178     -218737.98      0             -218274.19     -815.15372    
    344700   314.38499     -218739.89      0             -218278.77     -2155.9014    
    344800   312.2925      -218734.66      0             -218276.61     -2354.7389    
    344900   316.78546     -218737.18      0             -218272.55     -1657.0653    
    345000   317.51605     -218735.52      0             -218269.82     -1263.4045    
    345100   313.08686     -218728.35      0             -218269.14     -795.96026    
    345200   312.60883     -218729.91      0             -218271.4      -495.96681    
    345300   312.69491     -218737.68      0             -218279.04     -1519.3759    
    345400   310.94347     -218736.61      0             -218280.54     -231.2747     
    345500   311.88453     -218731.09      0             -218273.65      829.47529    
    345600   314.99407     -218730.56      0             -218268.56      132.43423    
    345700   313.10563     -218728.44      0             -218269.2      -449.44403    
    345800   315.47272     -218735.26      0             -218272.55     -829.008      
    345900   313.30828     -218738.07      0             -218278.53     -538.05397    
    346000   307.74524     -218735.87      0             -218284.5      -489.12125    
    346100   309.14208     -218739.62      0             -218286.19     -945.73143    
    346200   311.87262     -218733.56      0             -218276.13     -565.9872     
    346300   315.58996     -218733.56      0             -218270.68     -1036.2431    
    346400   316.46744     -218731.39      0             -218267.22     -1327.3031    
    346500   317.78204     -218732.8       0             -218266.71     -838.06911    
    346600   315.97396     -218737.33      0             -218273.89     -61.331765    
    346700   312.46811     -218736.81      0             -218278.51     -492.30745    
    346800   311.74135     -218733.37      0             -218276.14     -650.56642    
    346900   314.62161     -218733.34      0             -218271.88     -1176.9206    
    347000   315.66555     -218733.15      0             -218270.16     -256.79815    
    347100   316.21895     -218734.46      0             -218270.66      130.89762    
    347200   313.24786     -218732.27      0             -218272.83     -433.82398    
    347300   312.20897     -218737.18      0             -218279.25     -264.96191    
    347400   310.44015     -218737.62      0             -218282.29     -1024.4077    
    347500   311.55807     -218731.78      0             -218274.81     -1091.3336    
    347600   314.95679     -218731.25      0             -218269.29     -1333.3362    
    347700   314.88933     -218731.58      0             -218269.73     -1990.9941    
    347800   316.32407     -218735.49      0             -218271.54     -536.35625    
    347900   314.42622     -218737.26      0             -218276.08     -1193.6297    
    348000   316.19902     -218743.58      0             -218279.8      -2164.5484    
    348100   309.15173     -218732.46      0             -218279.03     -978.00117    
    348200   315.41979     -218731.8       0             -218269.17     -991.50191    
    348300   315.52343     -218730.14      0             -218267.36     -961.50021    
    348400   313.29546     -218730.14      0             -218270.63     -589.55065    
    348500   314.86375     -218736.98      0             -218275.16     -413.70843    
    348600   313.03315     -218741.08      0             -218281.95     -1380.9853    
    348700   312.5026      -218737.4       0             -218279.05     -1324.82      
    348800   313.94061     -218730.62      0             -218270.16     -973.57605    
    348900   316.23296     -218732.81      0             -218268.99     -1519.3921    
    349000   316.51508     -218735.32      0             -218271.08     -1892.2782    
    349100   315.93543     -218737.31      0             -218273.92     -1016.7659    
    349200   315.70533     -218737.89      0             -218274.84     -777.94102    
    349300   314.05295     -218731.4       0             -218270.78     -862.72965    
    349400   317.80549     -218731.51      0             -218265.38     -620.11143    
    349500   315.91436     -218728.13      0             -218264.78     -992.80611    
    349600   314.49964     -218733.63      0             -218272.35     -131.21671    
    349700   311.01743     -218734.25      0             -218278.08     -954.45178    
    349800   313.47307     -218735.41      0             -218275.64     -1098.277     
    349900   316.82757     -218734.54      0             -218269.84     -1025.5315    
    350000   318.5364      -218733.14      0             -218265.94     -741.82211    
    350100   315.25288     -218730.34      0             -218267.96     -580.52431    
    350200   316.5861      -218734.08      0             -218269.74     -89.800346    
    350300   315.70299     -218734.98      0             -218271.93     -749.40169    
    350400   313.89544     -218735.34      0             -218274.95     -212.12699    
    350500   315.63416     -218741.41      0             -218278.47     -576.70459    
    350600   315.57521     -218738.85      0             -218275.99     -510.84706    
    350700   317.02351     -218732.71      0             -218267.73     -1311.9985    
    350800   315.83013     -218728.53      0             -218265.3      -1077.9869    
    350900   316.09445     -218733.14      0             -218269.52     -1167.151     
    351000   313.52218     -218736.37      0             -218276.52     -804.44356    
    351100   312.20079     -218734.82      0             -218276.91     -1032.3672    
    351200   310.11307     -218728.57      0             -218273.73     -642.32846    
    351300   315.62108     -218732.47      0             -218269.54     -1009.5426    
    351400   315.82115     -218731.71      0             -218268.49     -454.0171     
    351500   313.5326      -218734.8       0             -218274.94     -425.50979    
    351600   309.55632     -218736.7       0             -218282.67     -1121.3241    
    351700   313.82154     -218739.26      0             -218278.97     -1381.5058    
    351800   314.07137     -218734.52      0             -218273.87     -475.28735    
    351900   317.51616     -218736.62      0             -218270.91     -1121.8922    
    352000   315.87559     -218733.88      0             -218270.58     -757.55556    
    352100   310.48503     -218727.4       0             -218272        -865.56269    
    352200   312.22661     -218737.67      0             -218279.72     -1601.3041    
    352300   308.716       -218734.69      0             -218281.89     -1338.6606    
    352400   312.10979     -218732.12      0             -218274.34     -1590.7847    
    352500   316.45582     -218733.58      0             -218269.43     -1150.6186    
    352600   314.52028     -218731.27      0             -218269.95     -1741.9138    
    352700   312.92523     -218730.56      0             -218271.59     -2045.3568    
    352800   314.86753     -218736.98      0             -218275.16     -557.6444     
    352900   310.45627     -218736.42      0             -218281.07     -991.88522    
    353000   313.94785     -218738.33      0             -218277.86     -1240.1308    
    353100   313.81506     -218730.65      0             -218270.38     -1263.9262    
    353200   316.23455     -218733.08      0             -218269.26     -927.27354    
    353300   316.02844     -218735         0             -218271.48      255.76028    
    353400   315.12134     -218736.72      0             -218274.53      162.404      
    353500   311.21107     -218736.94      0             -218280.48     -383.41336    
    353600   311.52465     -218738.44      0             -218281.52     -300.41985    
    353700   315.78492     -218736.37      0             -218273.21     -190.63614    
    353800   312.93267     -218727.55      0             -218268.57     -284.3007     
    353900   317.20524     -218733.89      0             -218268.64     -240.07525    
    354000   314.38125     -218733.83      0             -218272.73     -349.66928    
    354100   313.53737     -218740.22      0             -218280.35     -740.61628    
    354200   308.78818     -218736.4       0             -218283.49     -1315.126     
    354300   311.81181     -218731.52      0             -218274.18     -413.58127    
    354400   316.03562     -218733.77      0             -218270.24     -848.12617    
    354500   314.26023     -218731.86      0             -218270.93     -1204.8505    
    354600   316.22097     -218736.75      0             -218272.94     -920.99432    
    354700   314.84228     -218736.68      0             -218274.89     -815.89693    
    354800   314.35193     -218736.98      0             -218275.91     -1113.3567    
    354900   314.88091     -218734.47      0             -218272.63     -1691.0926    
    355000   316.2638      -218729.55      0             -218265.68     -987.2001     
    355100   313.51545     -218725.24      0             -218265.4      -1271.5297    
    355200   316.79875     -218736.19      0             -218271.54     -332.99908    
    355300   312.63599     -218737.68      0             -218279.13     -1525.4962    
    355400   311.95168     -218735.16      0             -218277.62     -986.07654    
    355500   319.62984     -218740.78      0             -218271.97     -824.68303    
    355600   317.06017     -218733.1       0             -218268.06     -861.58752    
    355700   316.46846     -218730.13      0             -218265.96      33.287271    
    355800   315.41247     -218733.44      0             -218270.82     -911.90823    
    355900   308.67709     -218732.66      0             -218279.92     -858.92761    
    356000   313.59607     -218737.43      0             -218277.48     -551.57615    
    356100   317.75085     -218736.47      0             -218270.42     -1847.1785    
    356200   316.45213     -218732.22      0             -218268.08     -566.13256    
    356300   317.9529      -218734.89      0             -218268.54     -229.37849    
    356400   312.17218     -218733.33      0             -218275.46     -351.25681    
    356500   310.31551     -218737.13      0             -218281.98     -979.02807    
    356600   312.50644     -218736.48      0             -218278.12      103.02369    
    356700   315.90771     -218735.74      0             -218272.39     -1512.6038    
    356800   313.7977      -218731.68      0             -218271.43     -1228.6722    
    356900   315.19935     -218732.7       0             -218270.39     -1314.3557    
    357000   314.69767     -218733.25      0             -218271.68     -1054.4953    
    357100   313.83578     -218736.69      0             -218276.39     -800.61885    
    357200   312.77511     -218737.89      0             -218279.14     -1193.758     
    357300   316.18063     -218737.47      0             -218273.73     -871.64952    
    357400   316.08615     -218730.84      0             -218267.23     -1183.7584    
    357500   315.92804     -218730.12      0             -218266.74     -1357.0042    
    357600   315.81842     -218733.05      0             -218269.84     -1549.6183    
    357700   312.22722     -218730.96      0             -218273.01     -588.34522    
    357800   314.11712     -218733.4       0             -218272.68     -1324.8763    
    357900   314.93394     -218734.17      0             -218272.25     -1433.5963    
    358000   314.97506     -218733.55      0             -218271.57     -1436.1015    
    358100   318.36519     -218736.08      0             -218269.13     -201.91539    
    358200   318.00416     -218730.71      0             -218264.29     -533.86583    
    358300   317.68664     -218729.64      0             -218263.69      100.01524    
    358400   314.74669     -218733.21      0             -218271.57     -607.46699    
    358500   311.39592     -218732.09      0             -218275.36     -1529.3676    
    358600   315.74439     -218737.08      0             -218273.97     -480.86961    
    358700   317.11441     -218735.6       0             -218270.48     -486.07704    
    358800   319.01719     -218729.61      0             -218261.7      -530.15401    
    358900   319.36803     -218728.4       0             -218259.98     -443.1764     
    359000   316.65505     -218731.31      0             -218266.86     -230.79243    
    359100   315.43567     -218733.29      0             -218270.63     -394.02831    
    359200   312.85155     -218731.9       0             -218273.03     -1429.2591    
    359300   313.52251     -218734.57      0             -218274.72     -2143.4209    
    359400   311.7915      -218731.89      0             -218274.58     -1602.6951    
    359500   315.28885     -218730.9       0             -218268.46     -1405.081     
    359600   316.2201      -218727.2       0             -218263.39     -714.29227    
    359700   315.60516     -218729.51      0             -218266.61     -773.31189    
    359800   315.35536     -218737.81      0             -218275.27     -1077.8189    
    359900   315.23049     -218739.24      0             -218276.88     -795.09639    
    360000   315.72542     -218736.55      0             -218273.47     -926.09897    
    360100   315.69291     -218732.06      0             -218269.03     -955.75872    
    360200   318.44011     -218733.74      0             -218266.68      172.43944    
    360300   316.54758     -218734.39      0             -218270.11     -266.86801    
    360400   308.94062     -218731.97      0             -218278.84     -586.29047    
    360500   309.53127     -218733.19      0             -218279.2      -163.18235    
    360600   314.35387     -218733.51      0             -218272.44     -680.48913    
    360700   315.70762     -218730.9       0             -218267.84     -1443.9728    
    360800   316.72118     -218732.13      0             -218267.59     -1653.3707    
    360900   314.67855     -218732.22      0             -218270.68     -1219.0241    
    361000   316.2111      -218735.85      0             -218272.06     -1611.9052    
    361100   315.08041     -218734.51      0             -218272.38     -767.11202    
    361200   315.11906     -218733.38      0             -218271.19     -926.41539    
    361300   316.88357     -218735.41      0             -218270.63     -789.21487    
    361400   314.38267     -218729.34      0             -218268.23     -461.04951    
    361500   316.06537     -218729.93      0             -218266.35     -882.69236    
    361600   312.44139     -218728.36      0             -218270.1      -1948.314     
    361700   314.69537     -218737.39      0             -218275.82     -1092.3571    
    361800   312.52412     -218737.48      0             -218279.09     -1064.8505    
    361900   315.30595     -218735.76      0             -218273.29     -1167.3819    
    362000   317.90602     -218730.81      0             -218264.53     -1515.3845    
    362100   318.24223     -218733.4       0             -218266.63     -1074.3644    
    362200   314.63342     -218734.02      0             -218272.55     -1160.9923    
    362300   312.72171     -218734.79      0             -218276.11     -1221.6283    
    362400   313.69765     -218735.49      0             -218275.39     -818.85237    
    362500   315.28735     -218727.29      0             -218264.86     -1185.3438    
    362600   318.45735     -218729.72      0             -218262.64     -1346.2148    
    362700   318.98066     -218735.74      0             -218267.88     -428.64605    
    362800   316.92377     -218737.44      0             -218272.6      -1338.914     
    362900   317.32508     -218739.88      0             -218274.45     -1690.1549    
    363000   315.06289     -218735.61      0             -218273.5      -906.13328    
    363100   316.64511     -218731.24      0             -218266.81     -1573.4003    
    363200   318.74455     -218728.2       0             -218260.7      -790.14498    
    363300   314.60342     -218727.71      0             -218266.27     -1116.8719    
    363400   315.88304     -218735.54      0             -218272.23      705.65948    
    363500   313.90865     -218733.86      0             -218273.45     -592.36708    
    363600   314.42248     -218734.1       0             -218272.93     -713.42913    
    363700   315.85908     -218731.83      0             -218268.55     -1349.5034    
    363800   318.76774     -218729.31      0             -218261.77     -631.75765    
    363900   320.15537     -218732.98      0             -218263.4      -1786.4811    
    364000   314.95188     -218734.79      0             -218272.84     -1367.6259    
    364100   311.25399     -218731.46      0             -218274.94     -565.38187    
    364200   314.19734     -218734.28      0             -218273.45     -810.42911    
    364300   313.81743     -218729.35      0             -218269.07     -1924.4295    
    364400   315.6315      -218726.88      0             -218263.94     -1778.4511    
    364500   321.00027     -218733.33      0             -218262.51     -699.17795    
    364600   313.39525     -218731.56      0             -218271.9      -1000.0847    
    364700   311.64059     -218733.48      0             -218276.39     -588.4169     
    364800   313.09129     -218733.13      0             -218273.91     -249.05745    
    364900   316.53789     -218733.09      0             -218268.82     -914.11713    
    365000   315.33736     -218727.25      0             -218264.74     -657.74165    
    365100   320.19042     -218731.95      0             -218262.32     -928.32605    
    365200   316.82807     -218734.65      0             -218269.96     -787.32785    
    365300   312.17291     -218733.76      0             -218275.89     -970.7461     
    365400   312.59161     -218733.12      0             -218274.64      463.00324    
    365500   318.14944     -218735.78      0             -218269.14      297.30059    
    365600   318.83694     -218731.7       0             -218264.06     -1227.8911    
    365700   315.6781      -218728.82      0             -218265.81     -570.41471    
    365800   315.7909      -218739.35      0             -218276.17     -1703.0034    
    365900   313.91459     -218737.78      0             -218277.36     -1346.6237    
    366000   311.78711     -218730.83      0             -218273.52     -957.98766    
    366100   316.14634     -218731.38      0             -218267.68     -798.64768    
    366200   315.68877     -218730         0             -218266.97     -750.86666    
    366300   314.31175     -218736.16      0             -218275.16      369.60022    
    366400   312.58819     -218739.01      0             -218280.53      526.94818    
    366500   313.77436     -218736.68      0             -218276.47     -671.06842    
    366600   318.23068     -218736.23      0             -218269.48     -478.53799    
    366700   313.73994     -218729.07      0             -218268.91     -902.58518    
    366800   313.93286     -218730.36      0             -218269.91     -585.60253    
    366900   310.27806     -218732.41      0             -218277.32     -487.50614    
    367000   314.55372     -218743.15      0             -218281.79     -1454.6868    
    367100   312.8271      -218735.99      0             -218277.16     -1230.2111    
    367200   312.07298     -218730.15      0             -218272.43     -160.62373    
    367300   314.7436      -218731.98      0             -218270.34     -681.75685    
    367400   317.41644     -218735.54      0             -218269.99     -1743.6284    
    367500   317.06534     -218736.25      0             -218271.21     -1582.5629    
    367600   311.23229     -218733.69      0             -218277.2      -756.07794    
    367700   312.38104     -218738.86      0             -218280.68      119.68763    
    367800   315.21938     -218737.54      0             -218275.2      -204.40542    
    367900   317.03155     -218732.5       0             -218267.51     -883.95312    
    368000   320.0357      -218735.96      0             -218266.55     -1036.2668    
    368005   321.69334     -218738.45      0             -218266.62     -1107.3443    
Loop time of 3400.11 on 8 procs for 345000 steps with 11348 atoms

Performance: 8.767 ns/day, 2.738 hours/ns, 101.467 timesteps/s
96.5% CPU use with 8 MPI tasks x 1 OpenMP threads

MPI task timing breakdown:
Section |  min time  |  avg time  |  max time  |%varavg| %total
---------------------------------------------------------------
Pair    | 1070.3     | 1118.9     | 1172.1     |  89.2 | 32.91
Kspace  | 1939.1     | 1988.3     | 2034.9     |  64.4 | 58.48
Neigh   | 130.9      | 134.11     | 137.25     |  18.8 |  3.94
Comm    | 101.52     | 107.47     | 112.27     |  31.3 |  3.16
Output  | 5.3101     | 5.5241     | 5.5685     |   3.5 |  0.16
Modify  | 33.353     | 33.72      | 34.149     |   4.2 |  0.99
Other   |            | 12.07      |            |       |  0.36

Nlocal:         1418.5 ave        1447 max        1398 min
Histogram: 1 2 0 1 2 0 1 0 0 1
Nghost:        3900.25 ave        3921 max        3882 min
Histogram: 1 1 0 2 1 0 1 1 0 1
Neighs:         105007 ave      110216 max      102683 min
Histogram: 2 1 2 1 1 0 0 0 0 1

Total # of neighbors = 840056
Ave neighs/atom = 74.026789
Neighbor list builds = 51891
Dangerous builds = 0

undump              1
unfix               1
unfix               RDF
uncompute           myRDF

print "Temp = ${Tmp}"
Temp = 315

variable Tmp delete
next a
jump SELF loop_start
print "loop body"
loop body
variable Tmp equal (${a}-1)*5+300
variable Tmp equal (5-1)*5+300

reset_timestep 0

velocity	all create 0.00001 87287

pair_style buck/coul/long 8.0
pair_coeff 1 1 0.0        1.0      0.0
pair_coeff 2 2 2029.2204  0.343645 192.58000
pair_coeff 3 3 0.0        1.0      0.0
pair_coeff 4 4 0.0        1.0      0.0
pair_coeff 1 2 41051.9380 0.151160 0.0000
pair_coeff 1 3 0.0        1.0      0.0
pair_coeff 1 4 0.0        1.0      0.0
pair_coeff 2 3 26655.4720 0.181968 86.5860
pair_coeff 2 4 17943.3840 0.226627 127.6500
pair_coeff 3 4 0.0        1.0      0.0
kspace_style pppm 1.0e-4

neighbor	0.3 bin
neigh_modify	every 1 delay 0 check yes

log log.lammps00_${Tmp}
log log.lammps00_320
