
timestep 0.001

min_style cg
minimize 1.0e-4 1.0e-6 1000 10000
PPPM initialization ...
WARNING: System is not charge neutral, net charge = -578.4 (src/kspace.cpp:327)
  using 12-bit tables for long-range coulomb (src/kspace.cpp:342)
  G vector (1/distance) = 0.3685921
  grid = 54 48 64
  stencil order = 5
  estimated absolute RMS force accuracy = 0.0018012891
  estimated relative force accuracy = 0.0001250926
  using double precision FFTW3
  3d grid and FFT values/proc = 34336 20736
Generated 0 of 6 mixed pair_coeff terms from geometric mixing rule
Neighbor list info ...
  update every 1 steps, delay 0 steps, check yes
  max neighbors/atom: 2000, page size: 100000
  master list distance cutoff = 8.3
  ghost atom cutoff = 8.3
  binsize = 4.15, bins = 14 12 18
  1 neighbor lists, perpetual/occasional/extra = 1 0 0
  (1) pair buck/coul/long, perpetual
      attributes: half, newton on
      pair build: half/bin/atomonly/newton
      stencil: half/bin/3d
      bin: standard
Per MPI rank memory allocation (min/avg/max) = 8.305 | 8.306 | 8.307 Mbytes
   Step          Temp          E_pair         E_mol          TotEng         Press     
         0   1e-05         -218680.06      0             -218680.06     -4909.3726    
         5   1e-05         -219045.29      0             -219045.29     -5572.9307    
Loop time of 0.122603 on 8 procs for 5 steps with 11348 atoms

95.0% CPU use with 8 MPI tasks x 1 OpenMP threads

Minimization stats:
  Stopping criterion = energy tolerance
  Energy initial, next-to-last, final = 
       -218680.0639922  -219025.366158221  -219045.293048477
  Force two-norm initial, final = 184.64678 33.725716
  Force max component initial, final = 6.642631 1.8640468
  Final line search alpha, max atom move = 0.055738279 0.10389876
  Iterations, force evaluations = 5 10

MPI task timing breakdown:
Section |  min time  |  avg time  |  max time  |%varavg| %total
---------------------------------------------------------------
Pair    | 0.036333   | 0.044456   | 0.053789   |   3.1 | 36.26
Kspace  | 0.05457    | 0.065205   | 0.074091   |   2.8 | 53.18
Neigh   | 0.0089141  | 0.0098954  | 0.01115    |   0.8 |  8.07
Comm    | 0.001971   | 0.0020492  | 0.0021164  |   0.1 |  1.67
Output  | 0          | 0          | 0          |   0.0 |  0.00
Modify  | 0          | 0          | 0          |   0.0 |  0.00
Other   |            | 0.0009976  |            |       |  0.81

Nlocal:         1418.5 ave        1437 max        1398 min
Histogram: 1 1 0 0 1 1 2 0 1 1
Nghost:        3868.75 ave        3890 max        3832 min
Histogram: 1 0 0 1 1 0 1 1 1 2
Neighs:         104635 ave      109701 max      101720 min
Histogram: 2 0 1 3 0 1 0 0 0 1

Total # of neighbors = 837079
Ave neighs/atom = 73.764452
Neighbor list builds = 4
Dangerous builds = 0

fix                 1 all npt temp ${Tmp} ${Tmp} 0.1 iso 1.0 1.0 1.0
fix                 1 all npt temp 305 ${Tmp} 0.1 iso 1.0 1.0 1.0
fix                 1 all npt temp 305 305 0.1 iso 1.0 1.0 1.0
dump                1 all atom 100 dump00_${Tmp}.adp
dump                1 all atom 100 dump00_305.adp
thermo              100
run                 23000
PPPM initialization ...
  using 12-bit tables for long-range coulomb (src/kspace.cpp:342)
  G vector (1/distance) = 0.3685921
  grid = 54 48 64
  stencil order = 5
  estimated absolute RMS force accuracy = 0.0018012891
  estimated relative force accuracy = 0.0001250926
  using double precision FFTW3
  3d grid and FFT values/proc = 34336 20736
Generated 0 of 6 mixed pair_coeff terms from geometric mixing rule
Per MPI rank memory allocation (min/avg/max) = 7.18 | 7.181 | 7.182 Mbytes
   Step          Temp          E_pair         E_mol          TotEng         Press          Volume    
         5   1e-05         -219045.29      0             -219045.29     -5572.9307      192782.64    
       100   34.471167     -219094         0             -219043.44      1784.4307      191036.37    
       200   36.85885      -219083.08      0             -219029.02     -332.46998      191162.51    
       300   42.135293     -219074.44      0             -219012.64      156.96         190876.16    
       400   49.907846     -219064.67      0             -218991.47     -262.02509      190739.51    
       500   58.118144     -219051.15      0             -218965.91      34.426101      190520.7     
       600   68.450576     -219034.51      0             -218934.11     -157.69659      190512.21    
       700   82.39967      -219018.23      0             -218897.37      565.61449      190100.37    
       800   97.955758     -218995.32      0             -218851.64     -300.5814       190214.86    
       900   114.27351     -218965.16      0             -218797.56     -412.19602      190328.11    
      1000   137.50688     -218937.86      0             -218736.18      79.602658      190128.45    
      1100   159.07994     -218898.57      0             -218665.25      190.03634      190105.26    
      1200   184.68733     -218856.04      0             -218585.15     -232.63494      190437.34    
      1300   216.20033     -218815.01      0             -218497.91     -666.68479      191042.45    
      1400   245.0981      -218768.11      0             -218408.62      61.942326      191121.28    
      1500   278.25421     -218728.3       0             -218320.18     -15.624488      191454.09    
      1600   299.87014     -218684.14      0             -218244.31     -674.99843      191719.67    
      1700   314.99408     -218653.47      0             -218191.46      1024.4261      191710.69    
      1800   320.72823     -218645.03      0             -218174.62      204.2893       192549.36    
      1900   314.93764     -218666.65      0             -218204.72      139.04625      192844.56    
      2000   297.3319      -218679.91      0             -218243.81      461.23712      192859.43    
      2100   292.8651      -218690.54      0             -218260.99      520.87573      192684.37    
      2200   299.61163     -218688.7       0             -218249.25      156.99191      191902.75    
      2300   306.59216     -218671.2       0             -218221.51     -266.14542      191347.89    
      2400   313.16573     -218664.35      0             -218205.02     -601.14415      191088.14    
      2500   308.68314     -218666.2       0             -218213.45      305.2055       190691.79    
      2600   305.0569      -218679.86      0             -218232.43      912.82636      190435.84    
      2700   296.53223     -218683.17      0             -218248.24     -477.72464      190623.8     
      2800   297.78605     -218685.86      0             -218249.09      635.36023      190442.36    
      2900   306.49187     -218683.1       0             -218233.56     -340.10882      190785.84    
      3000   309.18945     -218672.68      0             -218219.19      348.70692      190869.31    
      3100   308.44541     -218667.55      0             -218215.14      190.22218      191070.86    
      3200   309.29165     -218677.74      0             -218224.1      -457.45556      191242.62    
      3300   304.70709     -218688.8       0             -218241.88      214.97931      191351.55    
      3400   296.88528     -218687.68      0             -218252.24     -83.19127       191658.31    
      3500   303.05043     -218691.72      0             -218247.23      352.55062      191970.81    
      3600   302.61334     -218675.38      0             -218231.53      687.84148      192001.04    
      3700   309.55724     -218668.5       0             -218214.47      632.82552      192449.82    
      3800   308.33554     -218667.84      0             -218215.6      -58.11442       192328.94    
      3900   302.07965     -218674.85      0             -218231.79     -261.11916      192145.64    
      4000   302.54885     -218688.03      0             -218244.28     -829.25144      192256.84    
      4100   298.30063     -218684.61      0             -218247.08     -234.46653      191801.85    
      4200   304.24103     -218685.71      0             -218239.47     -627.19075      191625.36    
      4300   306.82627     -218679.88      0             -218229.85      270.56566      191137.08    
      4400   311.62465     -218680.49      0             -218223.42     -348.76838      191018.31    
      4500   309.64578     -218683.54      0             -218229.38      592.40682      190662.8     
      4600   300.36185     -218680.31      0             -218239.76      271.83661      190760.19    
      4700   303.59142     -218691.65      0             -218246.37     -43.241685      190702.53    
      4800   299.372       -218683.22      0             -218244.12      20.058337      190846.77    
      4900   305.62658     -218682.29      0             -218234.02     -596.44327      190951.73    
      5000   306.42486     -218677.1       0             -218227.66      211.72599      190968.68    
      5100   309.08098     -218680.63      0             -218227.29      135.35269      191181.25    
      5200   307.83195     -218685.43      0             -218233.93      990.30014      191453.96    
      5300   302.45892     -218686.44      0             -218242.81     -401.25233      191714.16    
      5400   302.09422     -218689.48      0             -218246.39      625.39113      191875.53    
      5500   302.10754     -218684.31      0             -218241.2       9.0631849      192030.38    
      5600   307.91126     -218681.14      0             -218229.53      646.24756      192084.69    
      5700   310.46345     -218677.78      0             -218222.42      1354.5903      192189.86    
      5800   308.46733     -218680.32      0             -218227.88      75.254911      192203.02    
      5900   300.66845     -218683.17      0             -218242.17      183.62671      191794.16    
      6000   300.57325     -218688.07      0             -218247.21      697.71002      191805.18    
      6100   302.63538     -218687.45      0             -218243.57      486.47266      191498.59    
      6200   306.47726     -218682.14      0             -218232.63      172.85094      191460.13    
      6300   307.2276      -218675.65      0             -218225.04      70.327014      191275.53    
      6400   308.43997     -218680.61      0             -218228.21     -212.57526      191352.1     
      6500   301.18055     -218681.62      0             -218239.88      1502.5826      190802.64    
      6600   302.83902     -218690.41      0             -218246.23     -655.17424      190823.79    
      6700   300.30087     -218684.47      0             -218244.01     -873.43632      190875.75    
      6800   307.57895     -218685.56      0             -218234.43      318.08324      190951.08    
      6900   307.36255     -218676.5       0             -218225.69     -1084.7199      191467.34    
      7000   307.20138     -218678.64      0             -218228.07      535.62002      191277.68    
      7100   306.43871     -218687.31      0             -218237.85     -405.47314      191554.06    
      7200   305.88356     -218695.69      0             -218247.05     -579.3875       191617.5     
      7300   304.0472      -218691.75      0             -218245.8      -1122.0243      191884.12    
      7400   305.21577     -218684.34      0             -218236.68      127.56412      191583.34    
      7500   309.59758     -218677.44      0             -218223.35     -1378.321       192181.15    
      7600   309.87946     -218678.2       0             -218223.7      -96.166539      192047.83    
      7700   304.1844      -218680.18      0             -218234.03      54.799725      191931.41    
      7800   303.34059     -218691.77      0             -218246.86      489.83023      191716.93    
      7900   302.98268     -218693.97      0             -218249.58     -210.72006      191733.1     
      8000   301.992       -218684.33      0             -218241.39      54.38489       191633.06    
      8100   309.47552     -218683.42      0             -218229.51      514.05936      191598.12    
      8200   309.47936     -218679.96      0             -218226.04     -18.217869      191389.17    
      8300   306.10106     -218680.75      0             -218231.79      41.791774      191200.09    
      8400   305.95161     -218691.22      0             -218242.48      388.11731      191075.65    
      8500   302.59582     -218694.12      0             -218250.3       357.40775      190801.23    
      8600   300.18538     -218687.84      0             -218247.56     -723.7337       191172.83    
      8700   306.65468     -218689.54      0             -218239.77     -122.74994      191243.41    
      8800   310.20061     -218686.89      0             -218231.91      1092.4224      191045.88    
      8900   308.69296     -218681.06      0             -218228.3      -878.92967      191673.67    
      9000   302.48933     -218680         0             -218236.33     -274.98294      191641.65    
      9100   301.85224     -218687.27      0             -218244.54     -143.45923      191645.24    
      9200   301.18981     -218688.82      0             -218247.06      234.40761      191681.11    
      9300   301.25138     -218685.77      0             -218243.92     -179.15801      191758.51    
      9400   309.02506     -218688.6       0             -218235.35     -468.31372      192026.58    
      9500   308.78024     -218684.68      0             -218231.79      36.066124      191773.97    
      9600   305.73263     -218682.85      0             -218234.43      28.183224      191944.74    
      9700   305.7212      -218690.72      0             -218242.32      56.438991      191828.34    
      9800   304.57727     -218695.31      0             -218248.58     -500.26936      191641.28    
      9900   300.92979     -218690.66      0             -218249.28      367.09035      191472.29    
     10000   304.96121     -218688.62      0             -218241.33      316.04649      191383.83    
     10100   308.36423     -218686.73      0             -218234.45      1226.3236      190923.31    
     10200   308.1946      -218686.09      0             -218234.05      158.60053      190928.91    
     10300   307.57638     -218691.73      0             -218240.6       832.32847      190853.1     
     10400   301.82453     -218690.71      0             -218248.02     -694.39104      191152.72    
     10500   303.49853     -218695.19      0             -218250.04      439.42425      191027       
     10600   303.63248     -218689.32      0             -218243.97      373.87081      191309.41    
     10700   308.77755     -218688.23      0             -218235.34     -37.037908      191417.32    
     10800   310.33287     -218687.8       0             -218232.63     -37.01914       191320.83    
     10900   306.77505     -218687.78      0             -218237.83      243.58099      191391.87    
     11000   304.55515     -218692.74      0             -218246.05     -578.76375      191541.58    
     11100   302.4309      -218693.4       0             -218249.82     -173.95976      191579.4     
     11200   301.91219     -218688.2       0             -218245.38      359.85804      191724.04    
     11300   306.84214     -218686.85      0             -218236.8      -171.81274      192088.9     
     11400   307.36508     -218683.43      0             -218232.62      272.46627      191677.09    
     11500   306.45396     -218685.18      0             -218235.7      -757.23793      191715.1     
     11600   300.36771     -218685.73      0             -218245.18      679.27611      191634.97    
     11700   303.20961     -218695.9       0             -218251.18      1334.6748      191345.34    
     11800   302.34058     -218691.98      0             -218248.53      251.045        191391.04    
     11900   306.64087     -218690.05      0             -218240.3      -955.79186      191399.31    
     12000   307.90962     -218686.68      0             -218235.06      858.54472      190814.34    
     12100   309.0484      -218687.05      0             -218233.76     -148.20922      191079.73    
     12200   305.85304     -218690.35      0             -218241.75     -39.830827      191121.55    
     12300   300.9123      -218692.59      0             -218251.24      650.53536      191027.83    
     12400   302.55923     -218694.56      0             -218250.79     -1404.3462      191452.25    
     12500   307.62414     -218694.78      0             -218243.59      1334.2791      191178.73    
     12600   306.94565     -218685.85      0             -218235.65      747.61515      191358.81    
     12700   306.81961     -218684.42      0             -218234.4       559.40149      191297.44    
     12800   307.15452     -218690.68      0             -218240.18     -21.721213      191529.87    
     12900   305.3358      -218694.35      0             -218246.51     -131.91285      191767.24    
     13000   300.04036     -218690.46      0             -218250.38     -381.44112      191730.07    
     13100   302.51687     -218690.94      0             -218247.24      539.35593      191634.98    
     13200   307.32437     -218689.63      0             -218238.87      24.61646       191650.64    
     13300   310.29426     -218689.94      0             -218234.83     -616.72445      191610.14    
     13400   304.52429     -218683.72      0             -218237.07     -142.26409      191603.7     
     13500   300.78831     -218684.71      0             -218243.54     -368.15868      191614.48    
     13600   303.09046     -218692.27      0             -218247.72     -988.94424      191422.11    
     13700   304.28399     -218695.66      0             -218249.36     -20.082882      191106.26    
     13800   303.4051      -218689.67      0             -218244.66     -1513.1588      191318.5     
     13900   307.29467     -218690.22      0             -218239.51     -54.34573       191104.94    
     14000   306.80049     -218687.05      0             -218237.07     -724.0989       191407.02    
     14100   302.04639     -218686.3       0             -218243.29      397.58839      191067.7     
     14200   302.51412     -218691.48      0             -218247.78     -696.84278      191467.52    
     14300   303.9321      -218696.17      0             -218250.39     -2182.5357      191394.09    
     14400   303.12413     -218693.28      0             -218248.69     -1252.6262      191234.56    
     14500   306.17009     -218691.91      0             -218242.85     -207.12388      191386.63    
     14600   306.06218     -218688.07      0             -218239.16      309.74273      191367.42    
     14700   304.40556     -218685.94      0             -218239.47      115.25474      191461.16    
     14800   306.63025     -218693.31      0             -218243.57     -644.11466      191673.12    
     14900   305.06106     -218697.25      0             -218249.81      999.88407      191303.28    
     15000   304.10186     -218695.85      0             -218249.82      60.860543      191483.89    
     15100   304.15114     -218692.22      0             -218246.12     -391.86896      191383       
     15200   307.06651     -218690.54      0             -218240.16     -1553.0918      191778.13    
     15300   305.80084     -218687.93      0             -218239.41     -193.44338      191427.25    
     15400   302.19248     -218686.56      0             -218243.33      1738.8706      191178.79    
     15500   303.48415     -218691.42      0             -218246.3       264.62722      191450.94    
     15600   302.01473     -218692.4       0             -218249.43      1698.4818      191012.93    
     15700   303.03003     -218692.07      0             -218247.61     -121.69031      191261.76    
     15800   304.25227     -218691.43      0             -218245.18      385.12512      191118.74    
     15900   306.86599     -218691.14      0             -218241.06     -532.91227      191394.85    
     16000   305.34509     -218687.06      0             -218239.2      -1123.9551      191537       
     16100   304.42365     -218688.67      0             -218242.17      0.70163477     191532.52    
     16200   304.70584     -218694.42      0             -218247.51     -1001.5254      191660.05    
     16300   303.44726     -218694.16      0             -218249.09     -600.87942      191533.16    
     16400   305.57863     -218693.91      0             -218245.71      354.93634      191386.23    
     16500   306.70347     -218691.22      0             -218241.38      498.29776      191520.87    
     16600   308.66505     -218693.15      0             -218240.43      1175.9579      191229.09    
     16700   304.32802     -218689.91      0             -218243.54      474.61914      191302.07    
     16800   304.50025     -218696.32      0             -218249.7       513.1982       191122.6     
     16900   304.59533     -218697.57      0             -218250.81     -254.09819      191424.21    
     17000   302.74851     -218694.08      0             -218250.03     -300.70458      191261.62    
     17100   306.55946     -218693.13      0             -218243.49     -469.81365      191280.01    
     17200   306.14689     -218688.11      0             -218239.08      435.06134      191176.66    
     17300   307.53194     -218691.48      0             -218240.42     -85.91811       191117.73    
     17400   303.67705     -218692.94      0             -218247.53     -441.3691       191233.27    
     17500   305.01825     -218699.7       0             -218252.33      96.4075        191237.3     
     17600   302.38988     -218694.12      0             -218250.6      -272.68214      191450.46    
     17700   304.78439     -218691.41      0             -218244.37      246.40953      191350.46    
     17800   309.77147     -218692.82      0             -218238.48      989.32377      191456.17    
     17900   310.23414     -218693.95      0             -218238.93      1138.9283      191413.24    
     18000   305.37818     -218692.45      0             -218244.55      112.17018      191408.11    
     18100   305.41276     -218699.78      0             -218251.83      367.68136      191307.46    
     18200   303.54524     -218696.93      0             -218251.72     -321.24924      191391.42    
     18300   302.15095     -218689.92      0             -218246.75     -408.24528      191416.26    
     18400   304.21408     -218685.46      0             -218239.27     -470.08548      191624.91    
     18500   304.0789      -218684.97      0             -218238.98      927.28493      191250.77    
     18600   305.71755     -218690.04      0             -218241.64     -128.14282      191430.59    
     18700   303.88823     -218694.81      0             -218249.09      684.55787      191213.97    
     18800   303.22102     -218697.34      0             -218252.6       229.25783      191436.79    
     18900   300.76642     -218692.04      0             -218250.9       678.48324      191244.81    
     19000   306.80375     -218692.22      0             -218242.22      893.00154      191456.63    
     19100   309.44429     -218691.25      0             -218237.39      377.33605      191147.79    
     19200   306.16038     -218687.24      0             -218238.19     -1790.638       191527.18    
     19300   306.97486     -218696.66      0             -218246.42      445.98809      191195.7     
     19400   305.0486      -218700.52      0             -218253.1      -232.69093      191296.36    
     19500   302.23927     -218698.04      0             -218254.74     -533.2699       191254.46    
     19600   304.46358     -218694.05      0             -218247.49     -925.05996      191372.94    
     19700   306.19994     -218687.07      0             -218237.96      183.19071      191444.48    
     19800   310.77027     -218690.99      0             -218235.18      462.75233      191346.94    
     19900   308.26816     -218694.33      0             -218242.18      565.3681       191399.82    
     20000   302.69697     -218696.75      0             -218252.78      1649.037       191291.29    
     20100   303.1293      -218698.83      0             -218254.22     -475.92383      191668.49    
     20200   304.4638      -218696.28      0             -218249.72      482.43718      191242.06    
     20300   304.58493     -218687.15      0             -218240.41     -934.79224      191397.76    
     20400   306.98801     -218687.27      0             -218237.01     -346.553        191339.13    
     20500   304.12746     -218688         0             -218241.93     -993.21465      191369.5     
     20600   304.35738     -218697.03      0             -218250.63     -567.58009      191285.24    
     20700   308.18535     -218706.47      0             -218254.45     -63.902938      191298.2     
     20800   303.03443     -218697.13      0             -218252.67     -186.12369      191228.91    
     20900   307.32331     -218695.59      0             -218244.83      176.22259      191438.7     
     21000   307.67962     -218690.8       0             -218239.53      103.46953      191320.07    
     21100   307.21556     -218692.13      0             -218241.53      382.791        191130.96    
     21200   304.95457     -218696.73      0             -218249.45     -52.594084      191332.16    
     21300   297.52733     -218692.46      0             -218256.07      204.85553      191380.94    
     21400   302.59847     -218700.4       0             -218256.58      1379.8118      191014.2     
     21500   304.19432     -218694.38      0             -218248.21     -1542.0101      191283.34    
     21600   307.55244     -218690.87      0             -218239.78     -65.057553      191109.31    
     21700   308.00429     -218690.2       0             -218238.45      329.23597      191347.66    
     21800   307.16056     -218695.12      0             -218244.61      330.82708      191457.54    
     21900   300.38765     -218694.8       0             -218254.21     -212.9225       191332.98    
     22000   302.93735     -218701.98      0             -218257.66     -777.01507      191335.63    
     22100   304.17881     -218699.17      0             -218253.02     -67.388491      191344.97    
     22200   307.74321     -218695.16      0             -218243.79     -791.42271      191416.9     
     22300   309.5518      -218693.58      0             -218239.55      103.51873      191249.53    
     22400   305.87975     -218689.51      0             -218240.88     -532.95205      191368.52    
     22500   304.2554      -218695.92      0             -218249.67      1195.3275      191159.78    
     22600   302.78184     -218699.92      0             -218255.83      939.59362      191246.07    
     22700   301.70043     -218700.11      0             -218257.6       917.20749      191145.03    
     22800   306.34063     -218700.45      0             -218251.13      695.15201      191377.53    
     22900   309.19722     -218696.57      0             -218243.06     -231.25086      191354.12    
     23000   305.23726     -218687.75      0             -218240.06     -326.70656      191304.7     
     23005   307.43658     -218691.11      0             -218240.19     -384.7847       191311.55    
Loop time of 293.77 on 8 procs for 23000 steps with 11348 atoms

Performance: 6.764 ns/day, 3.548 hours/ns, 78.293 timesteps/s
97.5% CPU use with 8 MPI tasks x 1 OpenMP threads

MPI task timing breakdown:
Section |  min time  |  avg time  |  max time  |%varavg| %total
---------------------------------------------------------------
Pair    | 70.096     | 73.592     | 76.169     |  23.4 | 25.05
Kspace  | 136.14     | 138.83     | 142.65     |  18.3 | 47.26
Neigh   | 8.7037     | 9.0145     | 9.2432     |   5.7 |  3.07
Comm    | 4.31       | 4.3323     | 4.3506     |   0.8 |  1.47
Output  | 0.33768    | 0.33886    | 0.34671    |   0.5 |  0.12
Modify  | 53.121     | 54.135     | 55.169     |   9.4 | 18.43
Other   |            | 13.53      |            |       |  4.60

Nlocal:         1418.5 ave        1434 max        1406 min
Histogram: 1 1 1 2 0 0 1 0 0 2
Nghost:        3880.38 ave        3903 max        3846 min
Histogram: 1 0 0 2 0 1 1 0 0 3
Neighs:         105080 ave      109893 max      102840 min
Histogram: 2 0 3 1 1 0 0 0 0 1

Total # of neighbors = 840642
Ave neighs/atom = 74.078428
Neighbor list builds = 3544
Dangerous builds = 0
unfix 1

timestep 0.001
fix                 1 all nvt temp ${Tmp} ${Tmp} 0.1
fix                 1 all nvt temp 305 ${Tmp} 0.1
fix                 1 all nvt temp 305 305 0.1
compute             myRDF all rdf 100
fix                 RDF all ave/time 100 1 100 c_myRDF[*] file lammps00_${Tmp}.rdf mode vector
fix                 RDF all ave/time 100 1 100 c_myRDF[*] file lammps00_305.rdf mode vector
run                 345000
PPPM initialization ...
  using 12-bit tables for long-range coulomb (src/kspace.cpp:342)
  G vector (1/distance) = 0.36882357
  grid = 54 48 64
  stencil order = 5
  estimated absolute RMS force accuracy = 0.001787825
  estimated relative force accuracy = 0.00012415757
  using double precision FFTW3
  3d grid and FFT values/proc = 34336 20736
Generated 0 of 6 mixed pair_coeff terms from geometric mixing rule
Neighbor list info ...
  update every 1 steps, delay 0 steps, check yes
  max neighbors/atom: 2000, page size: 100000
  master list distance cutoff = 8.3
  ghost atom cutoff = 8.3
  binsize = 4.15, bins = 14 12 18
  2 neighbor lists, perpetual/occasional/extra = 1 1 0
  (1) pair buck/coul/long, perpetual
      attributes: half, newton on
      pair build: half/bin/atomonly/newton
      stencil: half/bin/3d
      bin: standard
  (2) compute rdf, occasional, copy from (1)
      attributes: half, newton on
      pair build: copy
      stencil: none
      bin: none
Per MPI rank memory allocation (min/avg/max) = 8.235 | 8.236 | 8.237 Mbytes
   Step          Temp          E_pair         E_mol          TotEng         Press     
     23005   307.43658     -218691.11      0             -218240.19     -387.96561    
     23100   305.20287     -218690.96      0             -218243.32      519.40355    
     23200   303.365       -218695.85      0             -218250.9       288.37937    
     23300   301.90728     -218694.99      0             -218252.18      128.64403    
     23400   304.5277      -218696.87      0             -218250.22      549.47509    
     23500   306.0057      -218696.84      0             -218248.02      60.813746    
     23600   306.05895     -218694.38      0             -218245.48     -109.05914    
     23700   307.57549     -218692.96      0             -218241.83      297.42788    
     23800   304.1917      -218691.07      0             -218244.91     -999.57868    
     23900   304.18339     -218698.05      0             -218251.9      -974.41131    
     24000   303.71281     -218698.72      0             -218253.26     -401.46735    
     24100   304.69974     -218699.38      0             -218252.47      750.31139    
     24200   306.00951     -218694.15      0             -218245.32     -884.2163     
     24300   306.10458     -218688.64      0             -218239.68      477.7448     
     24400   307.54871     -218695.35      0             -218244.26     -288.30307    
     24500   303.18887     -218694.39      0             -218249.7      -845.7361     
     24600   303.75747     -218698.28      0             -218252.76     -74.243617    
     24700   305.61679     -218701.09      0             -218252.84     -711.42904    
     24800   308.87876     -218702         0             -218248.96     -395.54881    
     24900   308.86344     -218695.82      0             -218242.81      484.49261    
     25000   305.18345     -218689.4       0             -218241.78      381.05388    
     25100   302.36685     -218694.27      0             -218250.79      178.08415    
     25200   303.08808     -218699.77      0             -218255.23      211.26077    
     25300   302.79186     -218698.65      0             -218254.55      263.6092     
     25400   306.9287      -218700.3       0             -218250.12      1047.7974    
     25500   310.15097     -218699.62      0             -218244.72      891.16307    
     25600   310.80777     -218700.74      0             -218244.87     -279.23397    
     25700   302.02035     -218699.17      0             -218256.19      193.30344    
     25800   304.9321      -218703.75      0             -218256.5       73.578874    
     25900   306.47599     -218701.71      0             -218252.19     -443.24468    
     26000   309.64083     -218700.76      0             -218246.6      -74.769483    
     26100   305.36067     -218695.57      0             -218247.7      -214.30709    
     26200   302.52158     -218700.04      0             -218256.33     -1424.6151    
     26300   301.24274     -218700.23      0             -218258.39     -221.74847    
     26400   306.16564     -218703.97      0             -218254.92      752.44318    
     26500   304.87853     -218698.32      0             -218251.15      475.34224    
     26600   305.92027     -218697.02      0             -218248.32      874.14638    
     26700   305.20225     -218697.51      0             -218249.87      783.48214    
     26800   304.90597     -218704.93      0             -218257.72      895.65783    
     26900   305.21839     -218705.86      0             -218258.19     -147.97861    
     27000   307.71028     -218704.14      0             -218252.82     -207.42722    
     27100   306.09642     -218695.77      0             -218246.81     -777.48872    
     27200   309.685       -218701.49      0             -218247.27     -724.38031    
     27300   307.33964     -218700.79      0             -218250.01     -1305.5684    
     27400   304.34        -218697.9       0             -218251.52     -147.59062    
     27500   307.91342     -218702.68      0             -218251.05      458.50164    
     27600   304.83073     -218698.82      0             -218251.72     -625.71617    
     27700   304.28206     -218704.79      0             -218258.49     -618.83244    
     27800   301.78386     -218704.34      0             -218261.71     -112.78489    
     27900   305.47119     -218703.79      0             -218255.75     -400.91104    
     28000   303.97186     -218696.06      0             -218250.22      463.99196    
     28100   307.41764     -218699.37      0             -218248.47      783.24919    
     28200   306.68877     -218698.43      0             -218248.61      915.46749    
     28300   303.05614     -218698.64      0             -218254.14      1938.608     
     28400   301.62559     -218703.19      0             -218260.8       134.68082    
     28500   302.9801      -218701.97      0             -218257.58     -631.88967    
     28600   304.59015     -218697.98      0             -218251.24      58.072738    
     28700   303.54613     -218694.32      0             -218249.1       753.23879    
     28800   301.90989     -218691.36      0             -218248.54     -202.19789    
     28900   303.67508     -218695.54      0             -218250.14     -162.51193    
     29000   300.49119     -218697.63      0             -218256.89     -1763.2666    
     29100   301.21246     -218705.17      0             -218263.38     -248.21985    
     29200   303.12218     -218703.47      0             -218258.88     -1109.7741    
     29300   304.44651     -218700.09      0             -218253.56     -185.76774    
     29400   305.07411     -218697.63      0             -218250.17      709.33626    
     29500   305.46868     -218697.37      0             -218249.34     -71.07443     
     29600   303.74377     -218699.52      0             -218254.02      119.36578    
     29700   303.43131     -218706.72      0             -218261.67     -88.420243    
     29800   301.18843     -218701.06      0             -218259.3       423.98745    
     29900   302.7881      -218697.86      0             -218253.75      316.9283     
     30000   304.2925      -218697.42      0             -218251.11      462.06188    
     30100   306.21275     -218699.21      0             -218250.08     -123.54792    
     30200   304.65544     -218697.63      0             -218250.78     -952.46023    
     30300   304.7934      -218701.27      0             -218254.23     -341.90242    
     30400   304.35031     -218703.45      0             -218257.05     -270.49702    
     30500   304.43599     -218701.95      0             -218255.43     -24.871135    
     30600   308.69398     -218700.72      0             -218247.95     -602.6151     
     30700   306.34901     -218695.03      0             -218245.71     -1490.0821    
     30800   306.44445     -218699.16      0             -218249.69      98.661487    
     30900   305.34255     -218702.83      0             -218254.98     -20.077283    
     31000   304.12005     -218700.6       0             -218254.54     -305.97569    
     31100   305.4916      -218700.52      0             -218252.45      50.782402    
     31200   304.03292     -218695.75      0             -218249.82     -236.0559     
     31300   309.13729     -218699         0             -218245.58      29.777285    
     31400   309.70667     -218696.69      0             -218242.44      111.42857    
     31500   303.39316     -218694.23      0             -218249.24     -1656.8065    
     31600   305.22363     -218702.54      0             -218254.87     -531.10568    
     31700   302.19965     -218698.65      0             -218255.41     -723.32115    
     31800   305.69519     -218699.71      0             -218251.34     -643.26467    
     31900   305.6621      -218692.86      0             -218244.54     -502.62188    
     32000   310.03759     -218693.57      0             -218238.84     -682.41621    
     32100   311.19124     -218705.93      0             -218249.5      -1208.8843    
     32200   305.0981      -218703.01      0             -218255.52      314.65368    
     32300   301.33811     -218696.78      0             -218254.81     -955.29098    
     32400   307.07044     -218701.57      0             -218251.19      1216.7153    
     32500   305.7247      -218695.79      0             -218247.38      571.01146    
     32600   305.85134     -218694.17      0             -218245.57      513.74626    
     32700   305.87689     -218700.98      0             -218252.34      530.10204    
     32800   304.35255     -218704.03      0             -218257.63     -140.00503    
     32900   298.17375     -218692.25      0             -218254.91     -987.7804     
     33000   304.21024     -218696.49      0             -218250.3      -517.51895    
     33100   307.09331     -218699.37      0             -218248.96     -1191.5334    
     33200   308.21182     -218702.23      0             -218250.17      1318.054     
     33300   307.66457     -218703.04      0             -218251.79      77.958489    
     33400   304.03888     -218698.64      0             -218252.7      -258.59659    
     33500   303.62737     -218697.41      0             -218252.08     -655.1104     
     33600   306.749       -218701.39      0             -218251.48     -251.11845    
     33700   307.08928     -218699.32      0             -218248.91     -236.03719    
     33800   306.2023      -218694.17      0             -218245.06     -636.1707     
     33900   306.51521     -218696.33      0             -218246.76     -1196.5232    
     34000   303.25104     -218699.82      0             -218255.04     -379.27944    
     34100   300.86547     -218698.1       0             -218256.82      319.2618     
     34200   302.15521     -218697.16      0             -218253.99      128.40967    
     34300   308.461       -218701.58      0             -218249.15     -885.71209    
     34400   306.93341     -218698.57      0             -218248.39      124.81795    
     34500   305.37726     -218697.44      0             -218249.54     -904.49309    
     34600   304.39329     -218697.83      0             -218251.37     -291.3686     
     34700   303.14611     -218699.2       0             -218254.57     -506.49662    
     34800   300.42323     -218696.75      0             -218256.12     -249.41792    
     34900   303.43438     -218698.12      0             -218253.07      302.12421    
     35000   304.33383     -218693.04      0             -218246.67      791.92759    
     35100   306.8037      -218694.58      0             -218244.59     -416.76613    
     35200   305.746       -218699.49      0             -218251.04     -501.87722    
     35300   304.61217     -218701.66      0             -218254.88     -350.81831    
     35400   300.16657     -218694.85      0             -218254.59     -804.13716    
     35500   303.56258     -218697.65      0             -218252.41     -431.52114    
     35600   307.84377     -218700.14      0             -218248.62     -459.44873    
     35700   307.26586     -218692.2       0             -218241.52     -87.402071    
     35800   308.22888     -218693.6       0             -218241.51     -386.99471    
     35900   307.81874     -218703.26      0             -218251.78     -769.37911    
     36000   306.22615     -218703.74      0             -218254.59     -79.039305    
     36100   305.11595     -218701.56      0             -218254.04     -488.1815     
     36200   307.84537     -218700.53      0             -218249        -775.6202     
     36300   308.71356     -218698.39      0             -218245.59     -651.50077    
     36400   302.44781     -218691.84      0             -218248.24      812.87286    
     36500   301.78541     -218699.41      0             -218256.78     -531.05063    
     36600   302.3799      -218700.95      0             -218257.44     -104.69049    
     36700   305.45317     -218700.34      0             -218252.33     -360.62279    
     36800   305.52026     -218694.67      0             -218246.55     -561.54308    
     36900   308.47647     -218699.96      0             -218247.51     -457.33301    
     37000   304.90257     -218697.55      0             -218250.35     -330.45701    
     37100   306.24156     -218701.91      0             -218252.74     -98.066369    
     37200   304.00233     -218699.37      0             -218253.48      471.7961     
     37300   307.69564     -218701.79      0             -218250.49      393.21676    
     37400   308.56978     -218695.03      0             -218242.45     -737.33512    
     37500   308.85502     -218694.84      0             -218241.83     -947.98233    
     37600   306.56299     -218699.7       0             -218250.06      946.62698    
     37700   304.84113     -218700.33      0             -218253.22     -720.38918    
     37800   306.25574     -218702.31      0             -218253.12      566.48511    
     37900   307.1513      -218703.05      0             -218252.55      692.39688    
     38000   307.22708     -218703.38      0             -218252.77      471.76494    
     38100   307.4566      -218703.99      0             -218253.03     -360.7471     
     38200   303.55905     -218700.1       0             -218254.87     -239.91163    
     38300   304.31467     -218702.76      0             -218256.42     -256.751      
     38400   306.08366     -218704.4       0             -218255.46      294.90094    
     38500   306.55894     -218699.81      0             -218250.18      261.91388    
     38600   309.55722     -218699.7       0             -218245.66     -218.36941    
     38700   305.14007     -218696.17      0             -218248.62     -779.44896    
     38800   303.14488     -218702.72      0             -218258.09     -138.59875    
     38900   305.66516     -218706.82      0             -218258.49     -402.21932    
     39000   301.49221     -218697.58      0             -218255.38     -258.69245    
     39100   306.19803     -218698.92      0             -218249.82     -757.18154    
     39200   305.35983     -218696.25      0             -218248.37     -760.00926    
     39300   303.30201     -218698.16      0             -218253.3       435.0849     
     39400   301.30554     -218704.97      0             -218263.04     -753.45963    
     39500   303.23116     -218704.42      0             -218259.66     -768.19837    
     39600   304.45373     -218699.88      0             -218253.33      768.95887    
     39700   307.62409     -218701.35      0             -218250.15      642.68444    
     39800   303.78998     -218696.57      0             -218250.99      464.61099    
     39900   305.20799     -218704.76      0             -218257.11     -965.34899    
     40000   301.82967     -218706.5       0             -218263.8      -1925.2372    
     40100   304.28656     -218706.98      0             -218260.68     -336.33533    
     40200   302.47774     -218699.47      0             -218255.82      842.72404    
     40300   305.56609     -218700.5       0             -218252.32      20.464058    
     40400   307.77004     -218703.42      0             -218252.01      939.11117    
     40500   303.12665     -218701.55      0             -218256.95     -111.89412    
     40600   301.80846     -218706.53      0             -218263.87      622.5605     
     40700   306.54822     -218710.43      0             -218260.82      1088.7234    
     40800   300.25781     -218695.68      0             -218255.29     -666.82148    
     40900   302.88322     -218697.85      0             -218253.61     -106.55925    
     41000   304.65393     -218700.04      0             -218253.2       1096.2046    
     41100   301.28046     -218694.77      0             -218252.88     -334.42367    
     41200   305.10774     -218700.79      0             -218253.28      740.46328    
     41300   302.65091     -218699.61      0             -218255.7       425.42827    
     41400   300.63863     -218698.72      0             -218257.77     -815.36218    
     41500   302.57432     -218701.22      0             -218257.43     -715.12337    
     41600   303.97293     -218696.79      0             -218250.95     -153.98994    
     41700   304.33226     -218692.98      0             -218246.61     -345.92625    
     41800   307.67246     -218700.21      0             -218248.94     -497.9844     
     41900   303.86801     -218701.9       0             -218256.21     -372.46446    
     42000   303.72116     -218703.57      0             -218258.1       377.859      
     42100   306.27052     -218704.71      0             -218255.5      -495.0868     
     42200   308.09092     -218703.94      0             -218252.05     -725.51548    
     42300   308.2661      -218702.56      0             -218250.42     -366.16087    
     42400   305.85901     -218699.27      0             -218250.66     -15.675087    
     42500   304.35562     -218702.97      0             -218256.57     -392.03112    
     42600   304.65948     -218707         0             -218260.16     -1228.5349    
     42700   305.42053     -218704.99      0             -218257.02     -139.40021    
     42800   307.63539     -218700.38      0             -218249.17      479.79239    
     42900   309.11327     -218701.92      0             -218248.54     -906.92649    
     43000   306.59422     -218702.53      0             -218252.85     -712.35886    
     43100   302.29325     -218698.95      0             -218255.58     -448.9533     
     43200   302.17065     -218700.03      0             -218256.84     -631.7168     
     43300   299.87644     -218699.18      0             -218259.35     -470.46944    
     43400   305.12386     -218708.45      0             -218260.92     -455.74159    
     43500   303.06738     -218700.72      0             -218256.21     -69.017921    
     43600   310.83566     -218706.25      0             -218250.34     -871.56622    
     43700   307.63948     -218701.35      0             -218250.13     -118.21369    
     43800   303.81617     -218703.26      0             -218257.65     -75.083316    
     43900   302.26333     -218704.45      0             -218261.11     -623.81279    
     44000   302.65409     -218702.47      0             -218258.56     -208.20018    
     44100   307.81103     -218706.33      0             -218254.86     -632.32319    
     44200   303.97047     -218696.95      0             -218251.11     -1300.4068    
     44300   307.22985     -218699.03      0             -218248.41     -160.08683    
     44400   306.76944     -218700.61      0             -218250.67     -600.8592     
     44500   301.53755     -218700.66      0             -218258.39      94.502963    
     44600   304.0137      -218705.77      0             -218259.87     -878.21042    
     44700   307.08958     -218705.31      0             -218254.9       284.61452    
     44800   309.09226     -218702.8       0             -218249.45      578.21897    
     44900   301.2215      -218691.28      0             -218249.48     -1030.5303    
     45000   301.2566      -218700.18      0             -218258.33     -643.33129    
     45100   305.29613     -218710.69      0             -218262.91     -670.20978    
     45200   302.3759      -218702.4       0             -218258.9      -476.32311    
     45300   306.71539     -218702.25      0             -218252.39      453.18686    
     45400   305.07319     -218698.41      0             -218250.96      1793.9681    
     45500   305.73361     -218701.67      0             -218253.24      438.90203    
     45600   304.469       -218708.49      0             -218261.92      860.29991    
     45700   299.24332     -218703.31      0             -218264.41     -77.161605    
     45800   303.6535      -218705.91      0             -218260.53      295.81565    
     45900   304.1539      -218702.51      0             -218256.4      -319.50013    
     46000   305.91133     -218701.63      0             -218252.94      294.30081    
     46100   309.57484     -218705.51      0             -218251.46      251.89598    
     46200   307.33502     -218705.88      0             -218255.11     -361.76364    
     46300   303.96362     -218708.39      0             -218262.56     -394.21317    
     46400   299.95176     -218701.14      0             -218261.2      -643.03999    
     46500   303.49704     -218698.9       0             -218253.75      33.560597    
     46600   308.63374     -218704.4       0             -218251.72      718.04329    
     46700   302.92274     -218698.59      0             -218254.29      94.742681    
     46800   305.35883     -218704.45      0             -218256.58     -562.82038    
     46900   306.03295     -218703.8       0             -218254.94      190.95344    
     47000   307.99732     -218699.69      0             -218247.94     -196.47054    
     47100   305.95565     -218694.57      0             -218245.82     -73.49822     
     47200   305.95071     -218699.84      0             -218251.1       429.6973     
     47300   304.94435     -218704.49      0             -218257.22     -157.73481    
     47400   301.20111     -218700.14      0             -218258.37     -686.25148    
     47500   304.00918     -218702.34      0             -218256.45      370.84143    
     47600   308.26976     -218704.22      0             -218252.07      503.05564    
     47700   307.44307     -218696.3       0             -218245.36      87.373211    
     47800   308.63106     -218690.93      0             -218238.25     -374.26263    
     47900   311.29161     -218701.26      0             -218244.69     -1044.2652    
     48000   306.70435     -218700.3       0             -218250.46     -819.77714    
     48100   307.0126      -218705.56      0             -218255.26      101.67759    
     48200   302.28143     -218701.19      0             -218257.83     -884.52188    
     48300   304.20331     -218704.55      0             -218258.37     -462.03082    
     48400   305.38678     -218698.75      0             -218250.84     -320.38015    
     48500   306.74771     -218696.39      0             -218246.48      149.62889    
     48600   304.07235     -218695.94      0             -218249.95      404.98754    
     48700   305.70778     -218703.59      0             -218255.2       360.04208    
     48800   306.34973     -218705.63      0             -218256.31     -328.66745    
     48900   303.18397     -218700.33      0             -218255.64      835.91291    
     49000   307.40609     -218705.63      0             -218254.75     -8.3583944    
     49100   307.4049      -218702.07      0             -218251.19     -598.68927    
     49200   310.50024     -218699.79      0             -218244.38      247.13627    
     49300   309.26157     -218702.42      0             -218248.82     -246.55588    
     49400   303.79344     -218700.76      0             -218255.18      55.175442    
     49500   307.64979     -218707.37      0             -218256.13      269.67693    
     49600   303.47068     -218701.62      0             -218256.51      747.21713    
     49700   303.65156     -218701.4       0             -218256.03     -879.20891    
     49800   306.71656     -218701.49      0             -218251.62      794.38978    
     49900   308.94683     -218699.88      0             -218246.74     -1326.5882    
     50000   308.37819     -218700.62      0             -218248.32      495.85972    
     50100   303.12111     -218701.5       0             -218256.9      -1.4938427    
     50200   304.51908     -218705.64      0             -218259        -1121.2264    
     50300   301.06192     -218698.14      0             -218256.57     -566.83349    
     50400   306.31777     -218702.64      0             -218253.36     -51.791065    
     50500   306.61408     -218696.13      0             -218246.41     -232.48083    
     50600   309.02348     -218694.16      0             -218240.91     -272.17288    
     50700   307.70038     -218698.82      0             -218247.52      1132.8415    
     50800   304.04602     -218698.37      0             -218252.42      369.53494    
     50900   305.78107     -218703.92      0             -218255.43      634.452      
     51000   302.12632     -218701.81      0             -218258.68      1036.7156    
     51100   302.78002     -218703.2       0             -218259.11      466.54656    
     51200   302.65796     -218696.08      0             -218252.17     -114.19001    
     51300   310.36374     -218702.3       0             -218247.09     -296.75585    
     51400   307.41316     -218701.34      0             -218250.45      361.81715    
     51500   307.70815     -218704.73      0             -218253.41     -121.76037    
     51600   305.98654     -218703.22      0             -218254.42     -141.27272    
     51700   306.31947     -218703.73      0             -218254.44      37.147038    
     51800   306.05016     -218702.16      0             -218253.27      761.04477    
     51900   303.72483     -218698.55      0             -218253.07      250.42837    
     52000   306.42631     -218704.28      0             -218254.84      372.84439    
     52100   301.64227     -218700.64      0             -218258.21      591.73546    
     52200   302.29651     -218701.6       0             -218258.22     -501.92636    
     52300   304.37019     -218700.17      0             -218253.74     -541.2791     
     52400   311.45839     -218704.2       0             -218247.38     -876.62741    
     52500   307.61928     -218698.73      0             -218247.54      43.659882    
     52600   305.32625     -218705.47      0             -218257.64      868.31358    
     52700   304.59641     -218707.08      0             -218260.32      868.47673    
     52800   302.69854     -218699.37      0             -218255.4       483.45618    
     52900   307.77897     -218702.08      0             -218250.66     -367.04322    
     53000   307.79351     -218701.3       0             -218249.86     -338.8227     
     53100   302.38946     -218700.55      0             -218257.03     -788.60497    
     53200   301.13183     -218705.05      0             -218263.37     -92.580825    
     53300   300.5431      -218702         0             -218261.19      713.34059    
     53400   305.88232     -218704.68      0             -218256.03     -343.53128    
     53500   304.55933     -218701.19      0             -218254.49      306.49989    
     53600   304.14508     -218699.71      0             -218253.62      85.664731    
     53700   307.121       -218703.27      0             -218252.81     -223.70224    
     53800   307.36191     -218700.57      0             -218249.76      308.47657    
     53900   310.18358     -218704.07      0             -218249.12     -145.12488    
     54000   304.89547     -218702.22      0             -218255.03      672.93758    
     54100   301.45796     -218701.51      0             -218259.36      209.25455    
     54200   300.72774     -218701.13      0             -218260.05     -224.85216    
     54300   307.1253      -218702.71      0             -218252.25     -431.75485    
     54400   306.39609     -218695.57      0             -218246.18      299.01367    
     54500   305.1368      -218698.08      0             -218250.53     -325.61987    
     54600   307.8412      -218706.75      0             -218255.23     -288.17145    
     54700   301.6423      -218700.9       0             -218258.48      594.93084    
     54800   306.16173     -218706.26      0             -218257.21     -472.70914    
     54900   309.82679     -218701.43      0             -218247        -236.38924    
     55000   310.42404     -218700.82      0             -218245.51      1000.3795    
     55100   306.5764      -218702.1       0             -218252.44      757.49749    
     55200   304.18547     -218703.01      0             -218256.85      1211.9616    
     55300   301.7654      -218701.17      0             -218258.57     -489.28407    
     55400   304.91439     -218704.02      0             -218256.8      -49.743978    
     55500   307.44883     -218699.35      0             -218248.41      537.20788    
     55600   310.12188     -218699.5       0             -218244.64     -317.81896    
     55700   306.97411     -218699.74      0             -218249.49     -260.86077    
     55800   304.32361     -218700.2       0             -218253.85      240.42853    
     55900   307.43247     -218705.57      0             -218254.65      892.05705    
     56000   305.68478     -218704.14      0             -218255.79      525.46196    
     56100   306.42715     -218706.75      0             -218257.31      73.24834     
     56200   306.74243     -218706.61      0             -218256.7       234.74224    
     56300   307.829       -218704.66      0             -218253.16      306.30346    
     56400   304.77813     -218697.88      0             -218250.86      52.326048    
     56500   308.61075     -218703.29      0             -218250.65      138.41407    
     56600   304.74066     -218704.86      0             -218257.89      178.71449    
     56700   302.43929     -218705.33      0             -218261.74      771.1919     
     56800   305.05144     -218705.69      0             -218258.26      62.662802    
     56900   307.75634     -218703.28      0             -218251.89      357.88953    
     57000   307.05423     -218701.97      0             -218251.61     -709.09007    
     57100   304.75779     -218699.94      0             -218252.94      596.36753    
     57200   304.56094     -218702.44      0             -218255.74     -399.6802     
     57300   301.78687     -218703.1       0             -218260.47     -1109.5581    
     57400   303.16102     -218707.26      0             -218262.61     -913.19033    
     57500   308.28331     -218708.37      0             -218256.21     -1572.9887    
     57600   304.02263     -218695.87      0             -218249.96     -463.34709    
     57700   307.36176     -218700.1       0             -218249.29      8.7618237    
     57800   302.89039     -218698.96      0             -218254.71      301.59131    
     57900   304.909       -218707.54      0             -218260.32      619.13033    
     58000   303.48599     -218705.4       0             -218260.27      710.01605    
     58100   306.3712      -218703.35      0             -218253.99      442.10173    
     58200   309.17313     -218698.51      0             -218245.04      571.76725    
     58300   305.12786     -218696.23      0             -218248.69      852.24978    
     58400   305.15424     -218703.04      0             -218255.46     -494.75958    
     58500   304.42318     -218706.1       0             -218259.6      -170.18812    
     58600   304.83223     -218705.6       0             -218258.49      325.54286    
     58700   302.49047     -218695.96      0             -218252.29      222.70219    
     58800   305.6387      -218693.84      0             -218245.56     -654.94745    
     58900   310.41746     -218702.33      0             -218247.04      365.30353    
     59000   307.50808     -218702.71      0             -218251.68     -302.81623    
     59100   301.51165     -218697.11      0             -218254.88     -369.48193    
     59200   306.58085     -218705.54      0             -218255.88     -1231.1126    
     59300   306.99777     -218706.77      0             -218256.49     -485.39808    
     59400   302.18831     -218700.87      0             -218257.65      480.06886    
     59500   302.22064     -218701.52      0             -218258.25      558.36733    
     59600   305.52049     -218704.65      0             -218256.54      42.406144    
     59700   307.87185     -218703.24      0             -218251.68      212.12515    
     59800   303.99371     -218694.32      0             -218248.45      142.20471    
     59900   309.66988     -218701.29      0             -218247.09      502.12626    
     60000   302.87596     -218700.22      0             -218255.99     -405.79834    
     60100   302.33336     -218703.03      0             -218259.59     -2034.5151    
     60200   306.85061     -218707.54      0             -218257.48     -265.71637    
     60300   307.81791     -218703.01      0             -218251.53     -653.9957     
     60400   308.87197     -218699.49      0             -218246.46     -544.19587    
     60500   308.99485     -218702.26      0             -218249.05     -925.88106    
     60600   304.89118     -218699.23      0             -218252.04     -589.3124     
     60700   303.4627      -218699.87      0             -218254.78     -650.74815    
     60800   302.03795     -218700.89      0             -218257.89      458.78111    
     60900   301.41834     -218703.52      0             -218261.43      579.01216    
     61000   300.64924     -218704.83      0             -218263.87      827.22577    
     61100   303.30893     -218702.27      0             -218257.41      1508.3707    
     61200   305.84331     -218700.01      0             -218251.42     -262.07311    
     61300   305.26629     -218699.28      0             -218251.54     -619.21431    
     61400   307.51765     -218705.77      0             -218254.73      282.93381    
     61500   302.02504     -218706.64      0             -218263.65      832.53107    
     61600   302.45557     -218707.55      0             -218263.94     -777.11919    
     61700   303.37397     -218703.67      0             -218258.71     -852.09713    
     61800   304.95454     -218703.55      0             -218256.27     -73.866063    
     61900   304.07222     -218698.98      0             -218252.99      537.6949     
     62000   308.17442     -218702.69      0             -218250.68     -221.21835    
     62100   304.2892      -218699.21      0             -218252.91     -97.218117    
     62200   304.87414     -218707.66      0             -218260.49     -105.07004    
     62300   302.72385     -218705.06      0             -218261.05     -370.1952     
     62400   304.33466     -218700.98      0             -218254.61     -1094.1317    
     62500   303.5766      -218695.8       0             -218250.54     -1181.5813    
     62600   306.0159      -218700.34      0             -218251.5       770.82161    
     62700   305.96698     -218702.84      0             -218254.07     -247.45763    
     62800   307.20639     -218707.9       0             -218257.31     -485.57013    
     62900   302.823       -218701.65      0             -218257.5       429.43705    
     63000   307.88963     -218702.11      0             -218250.53     -26.143636    
     63100   306.94634     -218693.78      0             -218243.57     -348.43744    
     63200   309.23379     -218701.49      0             -218247.93      26.302745    
     63300   302.97115     -218699.76      0             -218255.39     -395.595      
     63400   303.00422     -218701.81      0             -218257.39     -876.34897    
     63500   303.10943     -218703.23      0             -218258.66     -749.43095    
     63600   303.80391     -218700.5       0             -218254.9       494.80129    
     63700   305.38283     -218694.98      0             -218247.07      398.26083    
     63800   307.44897     -218698.57      0             -218247.63     -123.0764     
     63900   304.12108     -218700.71      0             -218254.65     -315.86119    
     64000   304.12399     -218702.52      0             -218256.46     -504.59751    
     64100   306.39873     -218704.54      0             -218255.14     -39.287924    
     64200   302.14562     -218698.27      0             -218255.11     -253.39627    
     64300   308.72706     -218704.23      0             -218251.41     -433.63246    
     64400   306.42457     -218696.46      0             -218247.02     -96.021409    
     64500   307.42476     -218698.25      0             -218247.34      430.1732     
     64600   303.72144     -218701.01      0             -218255.54     -502.17236    
     64700   304.62252     -218706.43      0             -218259.63     -268.34984    
     64800   304.93994     -218706.03      0             -218258.77     -654.99491    
     64900   307.13797     -218703.9       0             -218253.42      342.2573     
     65000   309.87071     -218701.47      0             -218246.98      1093.4666    
     65100   306.48333     -218698.34      0             -218248.82      815.30015    
     65200   303.81254     -218706.41      0             -218260.81      864.61029    
     65300   303.89335     -218706.2       0             -218260.48      114.21422    
     65400   306.04943     -218703.86      0             -218254.98     -97.267259    
     65500   308.43242     -218702.45      0             -218250.07     -894.90574    
     65600   309.18431     -218701.98      0             -218248.49     -117.41975    
     65700   303.45091     -218701.02      0             -218255.95      21.278526    
     65800   305.53578     -218708.59      0             -218260.46     -523.44214    
     65900   305.66199     -218707.14      0             -218258.82     -355.82871    
     66000   306.82904     -218703.36      0             -218253.33      153.96211    
     66100   304.91818     -218698.34      0             -218251.11     -81.606595    
     66200   303.09563     -218697.32      0             -218252.76     -825.72456    
     66300   304.13864     -218700.19      0             -218254.1       71.711609    
     66400   304.71794     -218702.2       0             -218255.27      402.03133    
     66500   306.34616     -218705.95      0             -218256.63     -704.56391    
     66600   303.08869     -218701.33      0             -218256.79      201.76067    
     66700   306.9424      -218704.46      0             -218254.26     -901.73645    
     66800   305.80184     -218698.28      0             -218249.75     -672.74997    
     66900   308.0848      -218700.55      0             -218248.68      657.87434    
     67000   304.68251     -218701.26      0             -218254.38     -356.85594    
     67100   302.57598     -218704.59      0             -218260.8       245.63734    
     67200   304.57449     -218706.39      0             -218259.67     -373.59457    
     67300   304.11228     -218701.64      0             -218255.59     -58.760744    
     67400   306.55691     -218701.38      0             -218251.75      258.85925    
     67500   304.9686      -218699.05      0             -218251.74      504.12978    
     67600   305.81509     -218701.36      0             -218252.81     -292.76885    
     67700   304.70591     -218700.23      0             -218253.31      245.75733    
     67800   304.02836     -218703.86      0             -218257.94      284.10714    
     67900   302.37054     -218707.56      0             -218264.07     -735.3242     
     68000   301.34412     -218706.01      0             -218264.02     -427.9681     
     68100   304.34937     -218699.42      0             -218253.02      185.80685    
     68200   304.8367      -218697.6       0             -218250.49      507.2824     
     68300   304.28022     -218699.53      0             -218253.24     -991.52835    
     68400   301.3779      -218699.92      0             -218257.88     -100.74948    
     68500   304.37995     -218706.85      0             -218260.41      945.87762    
     68600   302.68268     -218702.01      0             -218258.06      400.16343    
     68700   306.37893     -218699.06      0             -218249.69     -46.789924    
     68800   310.24094     -218703.97      0             -218248.93      330.46544    
     68900   305.90292     -218703.22      0             -218254.55     -443.21095    
     69000   304.36928     -218705.69      0             -218259.27     -34.435959    
     69100   303.80856     -218703.78      0             -218258.18     -306.42244    
     69200   303.59013     -218701.92      0             -218256.64     -948.57775    
     69300   305.74286     -218703.33      0             -218254.9      -337.59631    
     69400   307.74774     -218703.67      0             -218252.29     -343.12416    
     69500   304.26728     -218697.55      0             -218251.28      240.30948    
     69600   304.06584     -218698.7       0             -218252.72     -500.99168    
     69700   305.60589     -218703.56      0             -218255.32      635.15667    
     69800   302.56755     -218702.27      0             -218258.48     -306.69391    
     69900   301.02131     -218700.63      0             -218259.12     -303.12773    
     70000   308.12356     -218704.36      0             -218252.43     -1554.0289    
     70100   309.09275     -218701.4       0             -218248.04     -979.40526    
     70200   304.85053     -218698.13      0             -218251         297.27528    
     70300   305.92001     -218704.02      0             -218255.32      821.47741    
     70400   303.48387     -218702.94      0             -218257.81      240.41083    
     70500   301.04951     -218698.76      0             -218257.2      -272.01389    
     70600   303.26713     -218699.46      0             -218254.65     -671.84153    
     70700   305.57626     -218699.5       0             -218251.31     -656.43502    
     70800   306.7285      -218699.25      0             -218249.37     -345.51049    
     70900   302.62222     -218696.48      0             -218252.62      179.48306    
     71000   306.68066     -218709.19      0             -218259.38     -842.49661    
     71100   302.43609     -218704.74      0             -218261.16     -1004.3824    
     71200   304.35081     -218701.88      0             -218255.48     -359.54614    
     71300   309.6277      -218704.32      0             -218250.19     -0.27338315   
     71400   306.51363     -218700.4       0             -218250.83     -357.57758    
     71500   307.18685     -218704.04      0             -218253.49     -218.87335    
     71600   305.80885     -218706.62      0             -218258.08     -456.15672    
     71700   301.56323     -218705.1       0             -218262.79     -410.84104    
     71800   303.72754     -218711.1       0             -218265.62     -578.43755    
     71900   302.83452     -218704.61      0             -218260.44     -402.14285    
     72000   305.69951     -218701.6       0             -218253.22      198.20751    
     72100   302.95732     -218695.8       0             -218251.45      689.54638    
     72200   305.94497     -218703.28      0             -218254.55      198.01125    
     72300   304.98824     -218706.96      0             -218259.63      440.81988    
     72400   300.3169      -218706.01      0             -218265.53     -42.839254    
     72500   301.99003     -218706.44      0             -218263.51     -57.291861    
     72600   306.91269     -218703.9       0             -218253.74      39.446293    
     72700   304.07387     -218696.71      0             -218250.72     -543.54371    
     72800   309.46485     -218704.46      0             -218250.56     -56.235901    
     72900   303.38252     -218701.83      0             -218256.86     -1320.3408    
     73000   301.73286     -218703.73      0             -218261.17     -323.4428     
     73100   306.90953     -218709.53      0             -218259.38      30.686426    
     73200   307.15872     -218703.05      0             -218252.54     -206.47664    
     73300   308.22214     -218700.78      0             -218248.71     -693.76578    
     73400   308.15305     -218702.77      0             -218250.8      -389.95556    
     73500   306.02526     -218703.65      0             -218254.8      -538.14378    
     73600   303.52823     -218703.77      0             -218258.59      241.44972    
     73700   304.94152     -218705.88      0             -218258.62     -537.11098    
     73800   305.81321     -218703         0             -218254.46     -317.37524    
     73900   309.05109     -218700.55      0             -218247.26     -639.33548    
     74000   312.46444     -218705.09      0             -218246.79     -639.73839    
     74100   304.57038     -218699.83      0             -218253.11     -106.23241    
     74200   301.2421      -218697.99      0             -218256.16     -196.13455    
     74300   303.64581     -218700.72      0             -218255.36     -5.4172913    
     74400   306.79324     -218702.67      0             -218252.69      477.04902    
     74500   307.16246     -218699.8       0             -218249.28     -254.82079    
     74600   307.86444     -218701.02      0             -218249.47      37.537639    
     74700   304.80075     -218703.59      0             -218256.53      425.47995    
     74800   301.48571     -218703.04      0             -218260.85      253.27136    
     74900   305.30324     -218705.28      0             -218257.49      661.54651    
     75000   308.71408     -218705.28      0             -218252.49     -4.9185451    
     75100   308.6567      -218702.31      0             -218249.6       840.03174    
     75200   306.03942     -218702.78      0             -218253.9      -537.03814    
     75300   302.0307      -218704.37      0             -218261.38     -117.0414     
     75400   302.36393     -218704.1       0             -218260.61     -1096.9677    
     75500   308.03388     -218705.96      0             -218254.16      57.453947    
     75600   307.33463     -218701.19      0             -218250.42     -278.61833    
     75700   305.13235     -218700.2       0             -218252.66      499.33784    
     75800   301.36336     -218702.56      0             -218260.54     -50.495483    
     75900   304.74853     -218711.77      0             -218264.79      1370.5484    
     76000   302.39545     -218705.96      0             -218262.43     -790.39542    
     76100   303.03521     -218703.29      0             -218258.82     -262.53119    
     76200   301.9553      -218696.47      0             -218253.59      277.6303     
     76300   307.34075     -218700.39      0             -218249.6       164.80163    
     76400   305.94903     -218699.7       0             -218250.96      281.45356    
     76500   302.10434     -218702.6       0             -218259.5      -847.80524    
     76600   302.34711     -218704.9       0             -218261.44     -149.72118    
     76700   305.19427     -218705.98      0             -218258.35      432.68054    
     76800   307.42691     -218704.55      0             -218253.64     -620.47555    
     76900   305.51462     -218701.07      0             -218252.96     -870.14726    
     77000   304.70702     -218700.29      0             -218253.37     -786.76736    
     77100   306.88706     -218704.91      0             -218254.79     -160.9446     
     77200   301.26637     -218704.84      0             -218262.97     -413.04848    
     77300   299.92661     -218705.94      0             -218266.04      175.43006    
     77400   304.10101     -218705.22      0             -218259.19     -61.575464    
     77500   306.69816     -218705.35      0             -218255.51      533.96915    
     77600   307.34312     -218703.94      0             -218253.16      106.86215    
     77700   303.36086     -218697.56      0             -218252.62     -266.02983    
     77800   307.43351     -218707.71      0             -218256.79      303.74874    
     77900   303.03421     -218708.56      0             -218264.09     -617.42304    
     78000   302.17078     -218705.93      0             -218262.73      446.8625     
     78100   306.21861     -218704.22      0             -218255.09      226.62781    
     78200   304.80984     -218700.67      0             -218253.6       860.63918    
     78300   307.28955     -218704.22      0             -218253.51      236.76924    
     78400   303.35579     -218700.46      0             -218255.52     -1005.3716    
     78500   303.15229     -218703.59      0             -218258.95      287.49645    
     78600   303.59161     -218706.77      0             -218261.48      42.365099    
     78700   304.77418     -218703.63      0             -218256.61     -448.98934    
     78800   306.87903     -218700.54      0             -218250.44     -37.956123    
     78900   306.57359     -218700.46      0             -218250.8      -269.12969    
     79000   304.12511     -218700.95      0             -218254.88     -17.837775    
     79100   305.79337     -218708.27      0             -218259.75      211.64286    
     79200   300.61579     -218711.66      0             -218270.74      97.144119    
     79300   298.74415     -218708.06      0             -218269.89      1001.4286    
     79400   300.50823     -218702.86      0             -218262.1       528.27625    
     79500   305.09468     -218703.73      0             -218256.24     -338.57378    
     79600   304.52474     -218699.12      0             -218252.47      295.08688    
     79700   308.28964     -218702.04      0             -218249.87      667.79221    
     79800   302.5734      -218696.16      0             -218252.37     -181.10407    
     79900   302.20368     -218702.75      0             -218259.51      294.86203    
     80000   301.79594     -218703.76      0             -218261.11     -530.15983    
     80100   306.07831     -218705.28      0             -218256.35      27.735386    
     80200   305.39214     -218696.12      0             -218248.19     -379.9628     
     80300   306.45903     -218698.37      0             -218248.88      606.86735    
     80400   302.46964     -218698.11      0             -218254.47      510.61045    
     80500   303.78699     -218703.64      0             -218258.07      317.71579    
     80600   301.90595     -218700.72      0             -218257.91      1059.6156    
     80700   305.90715     -218704.78      0             -218256.1       1159.0209    
     80800   304.8135      -218701.93      0             -218254.86     -253.21531    
     80900   301.89048     -218697.83      0             -218255.05     -518.89373    
     81000   303.86892     -218700.15      0             -218254.46     -531.79271    
     81100   304.01906     -218701.07      0             -218255.17     -1320.5394    
     81200   305.59276     -218703.31      0             -218255.09     -320.66786    
     81300   306.04297     -218705.15      0             -218256.27     -146.83867    
     81400   302.24848     -218703.24      0             -218259.92     -122.73479    
     81500   302.19808     -218703.53      0             -218260.3      -67.913631    
     81600   305.31515     -218701.97      0             -218254.16      820.1747     
     81700   307.71708     -218700         0             -218248.67      79.642604    
     81800   305.4156      -218698.61      0             -218250.65      433.48819    
     81900   308.10229     -218707.59      0             -218255.69      91.288446    
     82000   303.7287      -218701.96      0             -218256.47     -232.72864    
     82100   306.2147      -218704.85      0             -218255.72      91.362518    
     82200   303.86508     -218699.7       0             -218254.02     -1048.6976    
     82300   307.93434     -218703.08      0             -218251.42     -672.70802    
     82400   304.31611     -218695.13      0             -218248.79      928.39506    
     82500   302.42399     -218692.71      0             -218249.14     -6.5606966    
     82600   305.92502     -218704.39      0             -218255.68     -897.74094    
     82700   303.53529     -218705.83      0             -218260.63     -264.71067    
     82800   304.92844     -218706.29      0             -218259.04     -584.89487    
     82900   306.25328     -218702.98      0             -218253.79      59.590999    
     83000   308.39491     -218700.94      0             -218248.61     -590.33701    
     83100   307.88462     -218694.01      0             -218242.43     -657.21945    
     83200   308.67266     -218692.61      0             -218239.87      271.63703    
     83300   309.07045     -218702.1       0             -218248.78     -111.08439    
     83400   305.65728     -218702.37      0             -218254.06     -183.11559    
     83500   305.46707     -218705.81      0             -218257.78     -169.35122    
     83600   299.91071     -218697.86      0             -218257.98     -264.53481    
     83700   306.68291     -218701.49      0             -218251.68     -1454.0961    
     83800   306.64864     -218696.46      0             -218246.69      258.12245    
     83900   305.51372     -218698.17      0             -218250.07     -408.40352    
     84000   306.76772     -218704.2       0             -218254.26     -1045.0836    
     84100   304.58245     -218701.99      0             -218255.25      273.64277    
     84200   305.58959     -218703.4       0             -218255.19     -554.75599    
     84300   306.37743     -218703.83      0             -218254.47      227.96405    
     84400   305.73835     -218701.41      0             -218252.98     -434.71142    
     84500   305.57025     -218699.32      0             -218251.14     -636.65337    
     84600   308.21731     -218705.02      0             -218252.96     -332.43706    
     84700   302.64084     -218702.78      0             -218258.89      596.29819    
     84800   302.99091     -218705.71      0             -218261.31      1015.4153    
     84900   306.14402     -218705.87      0             -218256.85     -708.62924    
     85000   306.17807     -218698.36      0             -218249.28     -971.79856    
     85100   307.74719     -218701.2       0             -218249.83     -432.31298    
     85200   305.11517     -218701.24      0             -218253.73      356.19176    
     85300   300.84431     -218698.49      0             -218257.24     -1240.5983    
     85400   302.70195     -218702.05      0             -218258.07      225.22674    
     85500   305.49799     -218704.68      0             -218256.6      -603.04805    
     85600   302.45894     -218700.15      0             -218256.53      288.0912     
     85700   309.51545     -218708.74      0             -218254.77      338.8796     
     85800   307.23302     -218702.94      0             -218252.32     -426.59255    
     85900   306.41447     -218697.44      0             -218248.02     -329.91878    
     86000   307.96043     -218696.73      0             -218245.04     -25.049108    
     86100   305.37786     -218700.43      0             -218252.52     -437.07079    
     86200   304.16089     -218704.21      0             -218258.09     -546.22337    
     86300   304.35957     -218704.24      0             -218257.83      758.01103    
     86400   303.80638     -218700.96      0             -218255.36      938.02701    
     86500   309.0657      -218701.05      0             -218247.74      161.78604    
     86600   306.64747     -218695.43      0             -218245.66      584.77334    
     86700   305.79644     -218701.22      0             -218252.7       66.946876    
     86800   302.93534     -218701.17      0             -218256.85     -37.842095    
     86900   303.40047     -218701.97      0             -218256.96      497.83494    
     87000   306.32775     -218703.7       0             -218254.4       400.47147    
     87100   305.38803     -218699.39      0             -218251.47      347.91893    
     87200   306.97438     -218699.97      0             -218249.73      162.54449    
     87300   306.55428     -218703.66      0             -218254.03     -410.98691    
     87400   303.35709     -218705.56      0             -218260.62     -369.65272    
     87500   303.03366     -218705.95      0             -218261.48     -387.55035    
     87600   306.02084     -218703.84      0             -218255         725.98406    
     87700   305.21751     -218699.95      0             -218252.29      87.527942    
     87800   304.82012     -218700.86      0             -218253.77      197.97743    
     87900   306.02117     -218704.16      0             -218255.31     -523.18177    
     88000   305.04328     -218705.79      0             -218258.38     -284.78765    
     88100   301.71865     -218706.08      0             -218263.54      489.44288    
     88200   299.45355     -218702.85      0             -218263.63     -655.32212    
     88300   306.20987     -218704.13      0             -218255.01      852.78922    
     88400   304.5275      -218697.91      0             -218251.26     -989.70905    
     88500   304.20999     -218698.65      0             -218252.46     -509.35406    
     88600   303.16543     -218700.41      0             -218255.75      381.50144    
     88700   303.83606     -218708.63      0             -218262.99     -201.4306     
     88800   304.46945     -218709.72      0             -218263.16      418.52073    
     88900   303.29955     -218697.13      0             -218252.28      341.45843    
     89000   303.70893     -218695.65      0             -218250.2       288.55543    
     89100   304.08261     -218700.06      0             -218254.06     -800.497      
     89200   306.76402     -218708.83      0             -218258.9      -118.28662    
     89300   303.35584     -218706.21      0             -218261.28      370.60296    
     89400   302.9612      -218698.52      0             -218254.16      185.45574    
     89500   304.28604     -218694.65      0             -218248.35      92.396516    
     89600   305.81422     -218699.05      0             -218250.51     -473.26674    
     89700   302.80572     -218700.04      0             -218255.91      257.42865    
     89800   303.97781     -218705.16      0             -218259.31      225.41709    
     89900   304.67816     -218705.2       0             -218258.32      935.85227    
     90000   305.91299     -218705.18      0             -218256.49      1539.9342    
     90100   304.07018     -218701.77      0             -218255.78      1007.6238    
     90200   303.20403     -218699.95      0             -218255.23      1011.3739    
     90300   303.73713     -218697.88      0             -218252.39     -292.20371    
     90400   307.50039     -218697.47      0             -218246.46      176.02098    
     90500   308.29855     -218698.97      0             -218246.78     -66.472979    
     90600   304.63627     -218702.82      0             -218256        -334.19928    
     90700   304.81546     -218706.13      0             -218259.06     -325.715      
     90800   299.67043     -218697.34      0             -218257.81      517.76316    
     90900   304.27389     -218697.62      0             -218251.34     -548.62338    
     91000   305.35508     -218696.3       0             -218248.43      598.66824    
     91100   308.15423     -218703.13      0             -218251.16     -144.97547    
     91200   303.20649     -218698.76      0             -218254.04     -480.12862    
     91300   305.13294     -218701.71      0             -218254.17     -492.79979    
     91400   305.2826      -218703.39      0             -218255.63     -35.649496    
     91500   303.67782     -218702.8       0             -218257.39     -907.68434    
     91600   305.90253     -218707.63      0             -218258.96      120.78737    
     91700   301.72327     -218701.74      0             -218259.2      -218.75269    
     91800   303.53345     -218698.47      0             -218253.27      351.25779    
     91900   307.25096     -218699.19      0             -218248.54     -730.77001    
     92000   304.96772     -218697.6       0             -218250.3       136.59507    
     92100   306.21376     -218707.66      0             -218258.53     -116.9088     
     92200   302.59419     -218705.75      0             -218261.93     -328.83093    
     92300   303.45519     -218703.56      0             -218258.48      1085.4587    
     92400   305.14139     -218701.41      0             -218253.85     -123.74007    
     92500   306.34458     -218700.43      0             -218251.11      98.835263    
     92600   304.63847     -218697.5       0             -218250.68     -365.77042    
     92700   302.99882     -218701.74      0             -218257.33      166.93593    
     92800   301.21936     -218704.08      0             -218262.27     -238.74849    
     92900   302.97823     -218705.44      0             -218261.06      2.1795661    
     93000   307.23182     -218704.38      0             -218253.76     -411.31947    
     93100   307.69258     -218700.99      0             -218249.69      767.45713    
     93200   308.31123     -218703.51      0             -218251.31      554.61444    
     93300   305.18856     -218702.13      0             -218254.51     -882.36262    
     93400   307.08719     -218706.09      0             -218255.68     -1265.0995    
     93500   302.11195     -218699.53      0             -218256.42     -398.38937    
     93600   303.41653     -218700.39      0             -218255.37      620.39782    
     93700   308.27582     -218696.74      0             -218244.59      414.93728    
     93800   307.8639      -218695.03      0             -218243.48      245.564      
     93900   306.74403     -218701.77      0             -218251.86     -227.45066    
     94000   305.88988     -218705.45      0             -218256.79     -88.077342    
     94100   301.83814     -218702.47      0             -218259.76     -758.04107    
     94200   304.9966      -218706.3       0             -218258.95      592.55724    
     94300   305.6448      -218700.62      0             -218252.33      160.92744    
     94400   309.28966     -218701         0             -218247.36     -470.71577    
     94500   307.22384     -218701.1       0             -218250.49     -605.01032    
     94600   305.14969     -218703.74      0             -218256.18     -918.01562    
     94700   304.53497     -218704.26      0             -218257.6      -603.69962    
     94800   301.0788      -218698.87      0             -218257.27     -1333.8722    
     94900   306.16395     -218703.52      0             -218254.47     -367.40004    
     95000   307.3099      -218701.82      0             -218251.09     -1191.671     
     95100   307.57081     -218697.12      0             -218246         587.06743    
     95200   308.9578      -218696.93      0             -218243.78      434.71654    
     95300   304.53688     -218699.3       0             -218252.63     -1147.8625    
     95400   305.41265     -218704.71      0             -218256.76      252.69981    
     95500   304.76378     -218705.42      0             -218258.42     -632.85658    
     95600   303.72174     -218700.71      0             -218255.24     -1110.3678    
     95700   306.48445     -218698         0             -218248.47      354.46422    
     95800   305.46261     -218695.91      0             -218247.88      456.34351    
     95900   303.43873     -218703.99      0             -218258.93      278.95936    
     96000   304.5375      -218707.48      0             -218260.81      405.30258    
     96100   304.60522     -218704.7       0             -218257.94      746.85538    
     96200   303.69013     -218698.32      0             -218252.9      -477.26761    
     96300   305.38877     -218696.26      0             -218248.34     -644.49779    
     96400   307.15286     -218700.68      0             -218250.17      72.16296     
     96500   301.6172      -218703.07      0             -218260.68     -225.40257    
     96600   301.14466     -218701.83      0             -218260.13     -900.2861     
     96700   305.95321     -218703.79      0             -218255.04     -523.27258    
     96800   304.50315     -218696.25      0             -218249.63     -1665.3025    
     96900   306.30906     -218697.16      0             -218247.89     -748.40959    
     97000   305.27693     -218703.8       0             -218256.05      301.50987    
     97100   304.67634     -218707.11      0             -218260.24      42.620322    
     97200   306.25103     -218707.59      0             -218258.41      247.36244    
     97300   306.53338     -218703.2       0             -218253.6      -455.59254    
     97400   303.46805     -218694.89      0             -218249.79     -20.065282    
     97500   304.64561     -218697         0             -218250.17     -260.20619    
     97600   302.56875     -218704.3       0             -218260.52      177.31933    
     97700   303.42093     -218706.76      0             -218261.73     -240.50977    
     97800   303.51339     -218702         0             -218256.83     -554.02805    
     97900   305.22641     -218700.18      0             -218252.5      -637.03195    
     98000   306.02914     -218700.28      0             -218251.42      372.75527    
     98100   304.26939     -218702.96      0             -218256.68     -253.27884    
     98200   301.54102     -218705.65      0             -218263.37      50.039352    
     98300   307.56576     -218711.22      0             -218260.11     -1024.1228    
     98400   305.67937     -218703.18      0             -218254.84     -884.51598    
     98500   306.419       -218701.31      0             -218251.88     -1.3808277    
     98600   303.96517     -218698.69      0             -218252.86     -834.05763    
     98700   303.31719     -218699.01      0             -218254.13     -1041.3096    
     98800   305.46065     -218703.82      0             -218255.8       1006.3573    
     98900   306.52848     -218706.2       0             -218256.61      527.86781    
     99000   302.8915      -218700.75      0             -218256.5      -27.708138    
     99100   307.31371     -218699.93      0             -218249.19     -990.22684    
     99200   309.99023     -218698.33      0             -218243.66     -306.50456    
     99300   310.36678     -218703.71      0             -218248.49      1247.9669    
     99400   306.70622     -218703.37      0             -218253.52      591.58578    
     99500   304.88359     -218702.64      0             -218255.47     -424.35166    
     99600   304.60174     -218705.17      0             -218258.41     -1302.9776    
     99700   305.55683     -218707.06      0             -218258.9      -55.876844    
     99800   307.07844     -218703.19      0             -218252.79     -168.17188    
     99900   309.27705     -218701.15      0             -218247.53      933.77143    
    100000   306.10656     -218700.09      0             -218251.12      815.31401    
    100100   303.47347     -218702.47      0             -218257.36      555.08537    
    100200   304.17174     -218704.9       0             -218258.77      36.636827    
    100300   303.43604     -218703.16      0             -218258.11     -48.051552    
    100400   303.25983     -218699.83      0             -218255.03     -643.31011    
    100500   304.74835     -218697.95      0             -218250.97     -1392.6972    
    100600   308.78692     -218695.11      0             -218242.21     -592.67985    
    100700   309.24334     -218695.8       0             -218242.23     -1639.9787    
    100800   309.01086     -218703.18      0             -218249.95      100.80218    
    100900   306.97308     -218704.19      0             -218253.95     -1721.294     
    101000   303.44424     -218702.43      0             -218257.36     -301.73391    
    101100   302.66453     -218701.96      0             -218258.04     -192.67514    
    101200   308.99946     -218707.15      0             -218253.94      376.53185    
    101300   310.15914     -218703.09      0             -218248.18      481.20742    
    101400   306.6539      -218696.63      0             -218246.86      676.10754    
    101500   304.83972     -218702.96      0             -218255.84      159.79589    
    101600   302.32696     -218703.57      0             -218260.14     -365.69526    
    101700   300.18984     -218697.91      0             -218257.62     -367.69452    
    101800   306.05856     -218700.83      0             -218251.93     -162.88471    
    101900   301.73237     -218691.83      0             -218249.27     -121.19326    
    102000   304.61608     -218698.08      0             -218251.3      -626.01661    
    102100   301.6466      -218703.18      0             -218260.75     -1261.3549    
    102200   304.85294     -218708.33      0             -218261.2       303.1325     
    102300   308.84254     -218708.61      0             -218255.63     -377.30993    
    102400   308.17718     -218703.31      0             -218251.3      -208.72547    
    102500   304.26116     -218697.56      0             -218251.29     -243.17269    
    102600   306.99146     -218703.09      0             -218252.83      318.72061    
    102700   307.17522     -218704.73      0             -218254.19      24.092275    
    102800   303.6279      -218701.07      0             -218255.74     -349.79992    
    102900   303.47976     -218702.14      0             -218257.02      255.73973    
    103000   305.13017     -218702.35      0             -218254.82      384.9299     
    103100   307.29262     -218699.23      0             -218248.52     -280.52712    
    103200   306.55661     -218697.73      0             -218248.1       578.12857    
    103300   304.98278     -218701.72      0             -218254.39     -249.07289    
    103400   303.77062     -218704.99      0             -218259.44     -489.27662    
    103500   303.31594     -218703.31      0             -218258.43     -697.16816    
    103600   300.75858     -218696.83      0             -218255.7      -767.19101    
    103700   307.28504     -218701.43      0             -218250.73     -1035.1958    
    103800   312.15816     -218698.55      0             -218240.7      -237.50724    
    103900   309.02426     -218694.19      0             -218240.94     -208.83431    
    104000   306.81634     -218698.17      0             -218248.16     -86.066318    
    104100   304.75198     -218699.68      0             -218252.7       458.40508    
    104200   304.66889     -218704.51      0             -218257.65     -1119.3481    
    104300   303.22202     -218703.49      0             -218258.75     -994.59983    
    104400   305.02136     -218701.81      0             -218254.43     -1447.7602    
    104500   309.68124     -218699.69      0             -218245.47     -207.90155    
    104600   308.4606      -218699.63      0             -218247.21      201.96957    
    104700   301.32225     -218694.63      0             -218252.68     -648.45056    
    104800   303.24255     -218699.35      0             -218254.58     -954.13496    
    104900   304.69536     -218702.52      0             -218255.62      759.67993    
    105000   307.10745     -218706.19      0             -218255.75      506.75106    
    105100   303.28699     -218696.06      0             -218251.22     -1190.4702    
    105200   309.4576      -218702.09      0             -218248.2      -1296.7151    
    105300   306.99611     -218702.8       0             -218252.53     -841.68266    
    105400   304.22089     -218704.94      0             -218258.74      286.46314    
    105500   304.58443     -218707.11      0             -218260.37     -1077.5421    
    105600   302.973       -218701.94      0             -218257.56      424.70551    
    105700   303.83932     -218700.7       0             -218255.05     -281.0433     
    105800   305.35811     -218702.43      0             -218254.56      88.78592     
    105900   302.84241     -218699.19      0             -218255.01     -635.14349    
    106000   309.12404     -218710.46      0             -218257.06     -193.94734    
    106100   302.67051     -218705.48      0             -218261.55     -1058.8484    
    106200   302.29903     -218706.61      0             -218263.22     -603.20823    
    106300   305.92923     -218704.67      0             -218255.96     -1491.9385    
    106400   309.88815     -218706.21      0             -218251.69     -276.48433    
    106500   301.3432      -218695.55      0             -218253.56      129.10771    
    106600   307.92091     -218708         0             -218256.37      1060.7778    
    106700   302.60082     -218709.12      0             -218265.29      349.55268    
    106800   301.3457      -218709.92      0             -218267.94      63.477357    
    106900   303.90066     -218707.7       0             -218261.97     -88.276217    
    107000   306.59174     -218707.19      0             -218257.51     -644.95531    
    107100   302.50367     -218698.22      0             -218254.53     -457.69697    
    107200   307.10249     -218702.62      0             -218252.19     -470.90967    
    107300   306.77069     -218702.76      0             -218252.81      204.72733    
    107400   309.85696     -218712.82      0             -218258.35      1136.7408    
    107500   300.23228     -218703.13      0             -218262.77     -395.60372    
    107600   302.51624     -218702.83      0             -218259.12     -437.88543    
    107700   306.64022     -218702.26      0             -218252.51      19.949574    
    107800   305.78051     -218700.2       0             -218251.71     -999.04352    
    107900   304.91438     -218701.1       0             -218253.88      23.055892    
    108000   304.61996     -218702.47      0             -218255.68      64.127709    
    108100   303.73826     -218703.3       0             -218257.81      1158.7647    
    108200   304.13381     -218709.79      0             -218263.72      901.69854    
    108300   299.6723      -218707.76      0             -218268.23      1224.8851    
    108400   302.8633      -218706.56      0             -218262.34      315.49641    
    108500   305.66682     -218703.93      0             -218255.61     -668.40053    
    108600   307.10692     -218704.59      0             -218254.15     -975.74888    
    108700   306.20345     -218702.22      0             -218253.11     -251.98826    
    108800   308.2995      -218707.36      0             -218255.17     -341.29998    
    108900   303.0799      -218705.35      0             -218260.82     -712.1611     
    109000   300.38897     -218704.43      0             -218263.84      372.96266    
    109100   305.95048     -218707.46      0             -218258.72     -622.34903    
    109200   306.15155     -218700.48      0             -218251.44      293.35932    
    109300   307.68785     -218702.66      0             -218251.37     -186.72834    
    109400   305.26635     -218702.47      0             -218254.73      636.52073    
    109500   302.47351     -218704.85      0             -218261.21     -123.73       
    109600   300.82046     -218705.04      0             -218263.83     -151.52896    
    109700   305.29904     -218704.76      0             -218256.97     -455.85312    
    109800   307.85693     -218701.03      0             -218249.49     -531.75553    
    109900   306.12068     -218700.11      0             -218251.11      946.06373    
    110000   302.72317     -218700.98      0             -218256.97      109.92002    
    110100   301.78347     -218703.34      0             -218260.71     -1280.3922    
    110200   304.1356      -218705.9       0             -218259.82     -587.04206    
    110300   308.78533     -218703.13      0             -218250.23      354.57626    
    110400   306.92945     -218698.5       0             -218248.32     -163.37829    
    110500   304.51865     -218698.42      0             -218251.78     -7.3253512    
    110600   305.72696     -218704.31      0             -218255.9      -494.31347    
    110700   305.98551     -218707.45      0             -218258.65     -16.424122    
    110800   304.30797     -218705.1       0             -218258.77      422.15122    
    110900   303.82062     -218703.29      0             -218257.67      266.04803    
    111000   305.42153     -218702.85      0             -218254.89      150.95486    
    111100   304.59142     -218700.22      0             -218253.47     -1128.3618    
    111200   305.90734     -218703.18      0             -218254.5      -59.422997    
    111300   305.54112     -218708.21      0             -218260.07      591.80926    
    111400   300.69324     -218704.33      0             -218263.3       852.74185    
    111500   302.78092     -218703.11      0             -218259.02      339.13687    
    111600   306.93329     -218701.36      0             -218251.17     -182.13897    
    111700   306.12266     -218700.74      0             -218251.75     -157.80141    
    111800   305.1477      -218702.88      0             -218255.31     -101.43852    
    111900   304.3112      -218707.03      0             -218260.69      363.38156    
    112000   300.19681     -218704.94      0             -218264.64      63.462816    
    112100   301.65943     -218705.3       0             -218262.85     -489.5259     
    112200   308.0965      -218706.58      0             -218254.69     -525.93129    
    112300   307.45333     -218702.01      0             -218251.06     -50.968025    
    112400   304.46077     -218699.11      0             -218252.56      236.51815    
    112500   306.39318     -218707.82      0             -218258.43     -110.42122    
    112600   304.93909     -218710.55      0             -218263.29     -1368.0549    
    112700   305.24927     -218707.26      0             -218259.55     -252.97943    
    112800   305.33476     -218698.88      0             -218251.04      735.6556     
    112900   305.91342     -218699.62      0             -218250.94     -399.94676    
    113000   303.93741     -218700.11      0             -218254.32      22.101588    
    113100   305.19417     -218706.62      0             -218258.98     -768.86423    
    113200   303.15744     -218706.51      0             -218261.87     -842.86428    
    113300   302.31906     -218702.53      0             -218259.11     -6.3196026    
    113400   306.48742     -218699.41      0             -218249.88      69.676515    
    113500   306.95994     -218700.05      0             -218249.83     -248.63622    
    113600   307.04747     -218705.74      0             -218255.38      424.78112    
    113700   303.24345     -218705.01      0             -218260.23      121.45348    
    113800   304.50058     -218705.72      0             -218259.11     -108.68855    
    113900   305.36189     -218704.94      0             -218257.06      349.59436    
    114000   306.09132     -218702.94      0             -218254         427.26792    
    114100   307.82881     -218697.95      0             -218246.45     -74.256864    
    114200   310.23042     -218696.51      0             -218241.5      -1085.1129    
    114300   310.20982     -218703.43      0             -218248.45      403.70925    
    114400   310.2489      -218708.96      0             -218253.91      158.78651    
    114500   307.12387     -218707.82      0             -218257.36      1402.2584    
    114600   307.35124     -218709.92      0             -218259.13      1252.5688    
    114700   304.88586     -218707.01      0             -218259.83      878.34099    
    114800   305.07965     -218702.7       0             -218255.24      181.8056     
    114900   306.56532     -218698.71      0             -218249.06     -245.70391    
    115000   306.05087     -218698.68      0             -218249.79     -1089.5736    
    115100   305.13956     -218705.08      0             -218257.53      397.89549    
    115200   302.17385     -218703.82      0             -218260.62     -433.98574    
    115300   304.06307     -218705.11      0             -218259.14     -585.547      
    115400   305.159       -218703.11      0             -218255.53     -1251.4947    
    115500   307.13348     -218704.24      0             -218253.76     -783.57749    
    115600   305.43358     -218697.85      0             -218249.87      273.72661    
    115700   310.77825     -218701.85      0             -218246.02     -98.040731    
    115800   306.16602     -218699.7       0             -218250.64      363.58237    
    115900   306.94276     -218708.03      0             -218257.84      547.54919    
    116000   306.41062     -218708.34      0             -218258.92     -178.95781    
    116100   304.21211     -218703.7       0             -218257.5      -15.449944    
    116200   305.61123     -218699.78      0             -218251.54      438.66839    
    116300   306.20136     -218694.86      0             -218245.75      331.84444    
    116400   307.21226     -218699.6       0             -218249.01      407.48953    
    116500   306.24832     -218706.06      0             -218256.89     -845.88623    
    116600   303.6947      -218702.92      0             -218257.48     -330.90418    
    116700   302.46606     -218699.11      0             -218255.48     -252.47796    
    116800   302.31248     -218695.98      0             -218252.57     -304.93374    
    116900   307.47613     -218701.29      0             -218250.31      466.89735    
    117000   306.4454      -218701.41      0             -218251.94     -556.93203    
    117100   301.92256     -218702.01      0             -218259.18     -138.90391    
    117200   304.07635     -218708.14      0             -218262.14      106.73512    
    117300   304.17539     -218705.46      0             -218259.32      581.58728    
    117400   306.95633     -218701.17      0             -218250.96      261.42939    
    117500   305.19658     -218697.02      0             -218249.39      409.56719    
    117600   306.81268     -218702.18      0             -218252.18     -385.35683    
    117700   305.10381     -218703.35      0             -218255.85     -15.926483    
    117800   307.52517     -218709.38      0             -218258.33      918.51654    
    117900   303.08066     -218703.79      0             -218259.25      199.59514    
    118000   306.76104     -218703.49      0             -218253.56     -722.00667    
    118100   308.81462     -218700.96      0             -218248.02     -364.14537    
    118200   308.47308     -218701.48      0             -218249.04     -974.45705    
    118300   302.74405     -218701.05      0             -218257.01     -374.07252    
    118400   303.6716      -218703.9       0             -218258.5      -506.12883    
    118500   301.58477     -218700.96      0             -218258.62      1220.9893    
    118600   305.37083     -218702.06      0             -218254.17     -542.37798    
    118700   310.7458      -218701.14      0             -218245.36     -12.48267     
    118800   306.45702     -218695.54      0             -218246.06      213.11258    
    118900   304.7567      -218698.52      0             -218251.52     -897.21484    
    119000   306.4499      -218704.05      0             -218254.58      135.22641    
    119100   305.87613     -218706.53      0             -218257.89      264.05187    
    119200   302.98488     -218704.71      0             -218260.32     -240.17094    
    119300   302.9663      -218705.16      0             -218260.79     -569.19483    
    119400   308.1138      -218705.58      0             -218253.67     -387.60086    
    119500   306.48948     -218698.91      0             -218249.38     -9.127241     
    119600   304.28675     -218698.21      0             -218251.91     -807.23158    
    119700   301.81371     -218702.04      0             -218259.36     -1027.0101    
    119800   301.69517     -218703.34      0             -218260.84     -143.60156    
    119900   302.76307     -218703.52      0             -218259.45      693.97134    
    120000   304.04801     -218702.58      0             -218256.63      270.7106     
    120100   303.74755     -218700.02      0             -218254.51      620.58887    
    120200   302.21424     -218697.71      0             -218254.45      1012.6044    
    120300   306.45019     -218707.56      0             -218258.09     -532.53713    
    120400   302.72344     -218707.14      0             -218263.13      3.592767     
    120500   303.88222     -218709.11      0             -218263.4       280.58536    
    120600   304.3917      -218703.07      0             -218256.62     -354.39163    
    120700   306.4227      -218701.39      0             -218251.95     -321.84878    
    120800   304.65773     -218698.74      0             -218251.89     -1209.8894    
    120900   307.07819     -218705.6       0             -218255.2      -1503.0657    
    121000   298.42306     -218700.23      0             -218262.53     -1320.679     
    121100   300.55016     -218711.43      0             -218270.61     -1058.2041    
    121200   303.65017     -218711.75      0             -218266.38      18.977895    
    121300   302.62337     -218700.79      0             -218256.93      207.28718    
    121400   300.70177     -218694.09      0             -218253.05      19.39742     
    121500   308.57227     -218702.84      0             -218250.25      1146.4329    
    121600   302.63436     -218698.61      0             -218254.73      624.44386    
    121700   303.54245     -218704.92      0             -218259.71      774.26461    
    121800   304.356       -218706.92      0             -218260.52      1400.4261    
    121900   306.46622     -218704.09      0             -218254.59      884.09801    
    122000   307.71648     -218698.54      0             -218247.21      245.29446    
    122100   305.02362     -218698.16      0             -218250.77     -533.69705    
    122200   304.01102     -218702.05      0             -218256.15     -790.30602    
    122300   303.16755     -218702.7       0             -218258.04     -547.04407    
    122400   303.6918      -218703.81      0             -218258.38      454.64335    
    122500   303.07374     -218700.28      0             -218255.76     -1258.9948    
    122600   309.27559     -218701.57      0             -218247.95     -799.12759    
    122700   309.74916     -218695.3       0             -218240.99      837.40271    
    122800   308.16321     -218698.03      0             -218246.04      278.88149    
    122900   305.749       -218701.62      0             -218253.17      287.32602    
    123000   304.6759      -218705.23      0             -218258.35     -477.52594    
    123100   303.68537     -218706.26      0             -218260.84      898.2267     
    123200   305.63421     -218706.89      0             -218258.61     -67.252067    
    123300   309.55316     -218703.57      0             -218249.55     -368.62549    
    123400   306.90806     -218699.64      0             -218249.5      -1024.7896    
    123500   306.91205     -218704.02      0             -218253.87     -910.40039    
    123600   302.06391     -218700.28      0             -218257.23     -467.68126    
    123700   303.02161     -218701.72      0             -218257.27     -914.79209    
    123800   305.42838     -218705.78      0             -218257.8      -614.01878    
    123900   306.15312     -218705.17      0             -218256.13     -792.76134    
    124000   305.28997     -218699         0             -218251.23      225.40226    
    124100   305.73793     -218692.13      0             -218243.7      -202.68127    
    124200   311.00634     -218704.89      0             -218248.73      883.83765    
    124300   305.9046      -218703.72      0             -218255.04      964.64294    
    124400   305.00871     -218704.98      0             -218257.62      440.69336    
    124500   303.68601     -218704.55      0             -218259.13     -176.93534    
    124600   302.63122     -218703.96      0             -218260.09      576.50854    
    124700   306.44089     -218705.83      0             -218256.37     -110.12832    
    124800   303.1081      -218695.23      0             -218250.66      273.89095    
    124900   307.474       -218700.11      0             -218249.13      568.32717    
    125000   306.63504     -218705.85      0             -218256.11      875.1943     
    125100   299.86685     -218702.08      0             -218262.26     -715.66901    
    125200   303.29379     -218704.34      0             -218259.49     -712.62033    
    125300   307.88612     -218706.63      0             -218255.05     -324.41539    
    125400   306.06443     -218702.53      0             -218253.62     -453.26121    
    125500   307.73134     -218703.36      0             -218252.01      1640.1143    
    125600   305.90596     -218698.16      0             -218249.49      429.37998    
    125700   305.57251     -218700.18      0             -218252         522.50996    
    125800   304.749       -218705.35      0             -218258.37     -493.90966    
    125900   302.93749     -218705.75      0             -218261.43      1044.7591    
    126000   306.15014     -218707.9       0             -218258.87      695.77521    
    126100   307.27966     -218701.25      0             -218250.55      769.07886    
    126200   307.67569     -218700.24      0             -218248.97     -537.18752    
    126300   305.29576     -218699.95      0             -218252.17     -262.75637    
    126400   304.32153     -218703.71      0             -218257.36      17.19796     
    126500   304.48505     -218705.14      0             -218258.54     -957.74039    
    126600   303.6215      -218703.04      0             -218257.71     -573.69766    
    126700   305.70352     -218698.04      0             -218249.66     -1465.638     
    126800   307.865       -218696.72      0             -218245.17      567.28265    
    126900   304.539       -218697.89      0             -218251.22     -364.77638    
    127000   302.99689     -218701.27      0             -218256.86     -72.402504    
    127100   304.18196     -218704.39      0             -218258.24      508.44277    
    127200   306.91334     -218707.66      0             -218257.51      372.87312    
    127300   306.19856     -218702.88      0             -218253.77      789.78257    
    127400   308.43619     -218699.45      0             -218247.07     -551.89284    
    127500   304.62609     -218695.79      0             -218248.99     -608.21419    
    127600   303.53614     -218702.19      0             -218256.98      105.594      
    127700   302.60347     -218702.16      0             -218258.33      9.7515611    
    127800   302.56137     -218701.05      0             -218257.28      517.31047    
    127900   305.1774      -218700.4       0             -218252.79     -107.52553    
    128000   309.10037     -218700.13      0             -218246.76     -1057.2471    
    128100   307.59494     -218700.23      0             -218249.08     -1037.6139    
    128200   302.28928     -218703.03      0             -218259.66     -214.71235    
    128300   303.25423     -218704.61      0             -218259.83      27.662143    
    128400   307.07974     -218707.24      0             -218256.84      534.33005    
    128500   306.44275     -218700.54      0             -218251.08     -594.76943    
    128600   307.32816     -218699.87      0             -218249.11      427.92278    
    128700   303.60005     -218701.88      0             -218256.59     -204.00454    
    128800   303.30556     -218707.16      0             -218262.3      -121.72052    
    128900   303.4143      -218704.37      0             -218259.35     -466.1857     
    129000   308.37878     -218705.93      0             -218253.63      570.74498    
    129100   304.25253     -218698.7       0             -218252.45     -336.46377    
    129200   304.90312     -218701.88      0             -218254.67      275.9959     
    129300   301.60584     -218706.22      0             -218263.85     -1370.7031    
    129400   302.18783     -218707.58      0             -218264.35     -1139.3695    
    129500   309.59969     -218711.84      0             -218257.74     -656.33384    
    129600   306.04295     -218703.68      0             -218254.8      -59.847373    
    129700   306.67901     -218704.03      0             -218254.21     -262.79043    
    129800   302.23364     -218700.28      0             -218256.99      978.61961    
    129900   302.73588     -218706.85      0             -218262.83     -1513.105     
    130000   298.44273     -218705.67      0             -218267.93     -212.56291    
    130100   303.5956      -218707.33      0             -218262.05      74.066673    
    130200   306.93306     -218706.35      0             -218256.17     -328.22064    
    130300   306.54522     -218704.47      0             -218254.86      524.36828    
    130400   306.62754     -218704.11      0             -218254.38     -498.79322    
    130500   302.45799     -218700.11      0             -218256.49     -765.06354    
    130600   305.15895     -218710.75      0             -218263.17     -505.55748    
    130700   304.37615     -218708.76      0             -218262.33     -678.52722    
    130800   308.33197     -218706.32      0             -218254.09     -0.84015628   
    130900   306.8         -218701.11      0             -218251.12     -1100.6482    
    131000   303.67486     -218697.61      0             -218252.21     -918.48557    
    131100   305.11987     -218703.57      0             -218256.05      19.506377    
    131200   300.13081     -218702.46      0             -218262.25      324.06626    
    131300   297.39552     -218703.72      0             -218267.52      98.595507    
    131400   298.94292     -218708.08      0             -218269.62      542.31248    
    131500   302.88816     -218705.37      0             -218261.12      522.45498    
    131600   305.51862     -218702.74      0             -218254.64      211.28731    
    131700   303.01761     -218696.91      0             -218252.47     -454.48312    
    131800   305.67981     -218700.82      0             -218252.47     -23.57473     
    131900   303.15235     -218703.56      0             -218258.92     -192.33067    
    132000   300.49601     -218704.36      0             -218263.61      434.55852    
    132100   305.36448     -218708.27      0             -218260.38     -813.40612    
    132200   303.57175     -218701.4       0             -218256.14     -521.666      
    132300   306.91825     -218704.96      0             -218254.8      -239.29413    
    132400   303.20896     -218700.76      0             -218256.04      755.09187    
    132500   303.07833     -218702.76      0             -218258.23      323.76453    
    132600   302.67313     -218705.69      0             -218261.76      991.3408     
    132700   302.21322     -218707.67      0             -218264.41      157.18712    
    132800   302.06628     -218701.88      0             -218258.84      365.52085    
    132900   304.27794     -218698.96      0             -218252.67      722.61841    
    133000   305.33923     -218700.3       0             -218252.46     -318.27464    
    133100   306.08143     -218705.62      0             -218256.69     -32.808538    
    133200   305.34985     -218710.58      0             -218262.72      127.85111    
    133300   299.54772     -218710         0             -218270.65     -1111.758     
    133400   302.07111     -218716.42      0             -218273.37     -968.35381    
    133500   304.71639     -218710.19      0             -218263.26     -742.76415    
    133600   304.59149     -218705.4       0             -218258.65     -835.83263    
    133700   305.62849     -218701.79      0             -218253.52     -406.36442    
    133800   305.30633     -218699.68      0             -218251.89      146.28588    
    133900   304.89114     -218700.26      0             -218253.07     -0.71467897   
    134000   303.65901     -218705.4       0             -218260.01     -132.21948    
    134100   305.49247     -218711.49      0             -218263.41     -980.1066     
    134200   304.84323     -218707.06      0             -218259.95     -167.81832    
    134300   307.02953     -218706.7       0             -218256.37      137.85119    
    134400   303.2595      -218700.22      0             -218255.42      466.61228    
    134500   306.06217     -218703.26      0             -218254.35      579.11509    
    134600   304.78319     -218700.49      0             -218253.46     -134.01841    
    134700   306.58601     -218702.99      0             -218253.31     -750.06903    
    134800   305.61289     -218701.69      0             -218253.44     -239.49747    
    134900   304.24193     -218701.95      0             -218255.71     -1077.6254    
    135000   305.05953     -218708.56      0             -218261.13     -941.09765    
    135100   304.20058     -218709.35      0             -218263.17     -400.31163    
    135200   306.55269     -218705.26      0             -218255.64      81.449872    
    135300   305.3148      -218698.81      0             -218251         11.004842    
    135400   304.1123      -218698.97      0             -218252.92     -366.98012    
    135500   306.02417     -218705.98      0             -218257.13     -134.91283    
    135600   306.76513     -218710.06      0             -218260.12      748.06096    
    135700   306.43404     -218709.61      0             -218260.16     -243.62781    
    135800   305.95554     -218701.29      0             -218252.54     -67.234398    
    135900   308.80451     -218699.54      0             -218246.62     -94.813911    
    136000   302.26747     -218695.47      0             -218252.13     -477.32297    
    136100   304.74899     -218705.11      0             -218258.13     -373.34825    
    136200   306.20677     -218709.71      0             -218260.59     -858.68949    
    136300   307.64543     -218709.44      0             -218258.21     -685.42861    
    136400   306.93111     -218699.69      0             -218249.51     -738.65595    
    136500   306.37968     -218696.13      0             -218246.76     -583.1893     
    136600   305.42348     -218698.99      0             -218251.02      10.669747    
    136700   302.71064     -218699.94      0             -218255.95     -935.20951    
    136800   306.0854      -218707.4       0             -218258.46      289.17811    
    136900   304.26839     -218706.56      0             -218260.28      940.40741    
    137000   306.07648     -218708.03      0             -218259.1       750.83751    
    137100   304.61878     -218698.52      0             -218251.73      839.82006    
    137200   307.28796     -218700.38      0             -218249.68      473.48668    
    137300   305.34429     -218703.96      0             -218256.11     -214.80678    
    137400   304.62593     -218706.49      0             -218259.69      1035.3258    
    137500   303.56147     -218703.85      0             -218258.62     -658.55297    
    137600   302.85044     -218700.73      0             -218256.53      247.15627    
    137700   307.72634     -218706.25      0             -218254.9       121.55785    
    137800   307.30771     -218701.58      0             -218250.85     -349.75212    
    137900   305.93895     -218698.71      0             -218249.99     -83.793255    
    138000   306.19773     -218705.32      0             -218256.21     -209.85129    
    138100   302.37694     -218705.91      0             -218262.41      627.71315    
    138200   304.73459     -218708.58      0             -218261.62      313.24442    
    138300   306.57951     -218707.21      0             -218257.55      472.84637    
    138400   305.45587     -218700.8       0             -218252.78     -97.620118    
    138500   307.60323     -218693.55      0             -218242.39      306.55249    
    138600   310.00683     -218698.61      0             -218243.92     -193.41306    
    138700   307.83952     -218702.25      0             -218250.73     -246.25972    
    138800   305.24393     -218703.65      0             -218255.95     -526.80429    
    138900   301.27494     -218702.33      0             -218260.45     -22.604914    
    139000   306.09923     -218708.82      0             -218259.86     -361.24974    
    139100   309.0892      -218706.49      0             -218253.14     -641.5387     
    139200   307.88827     -218699.3       0             -218247.71     -387.04579    
    139300   308.71153     -218703.41      0             -218250.61     -160.33029    
    139400   306.63282     -218704.91      0             -218255.17     -373.31714    
    139500   301.28811     -218700.17      0             -218258.27      289.91541    
    139600   302.831       -218704.05      0             -218259.89      50.358981    
    139700   305.07734     -218705.9       0             -218258.44     -600.23846    
    139800   307.57317     -218702.21      0             -218251.08     -444.59899    
    139900   308.2459      -218700.75      0             -218248.64     -25.805865    
    140000   309.69447     -218708.42      0             -218254.19      164.34952    
    140100   303.34813     -218705.87      0             -218260.94      125.92104    
    140200   302.103       -218704.15      0             -218261.05      341.51956    
    140300   305.79552     -218706.26      0             -218257.75     -565.7962     
    140400   306.43529     -218701.85      0             -218252.39      294.98721    
    140500   309.429       -218702.49      0             -218248.65     -223.69181    
    140600   306.71169     -218695.59      0             -218245.74     -676.55745    
    140700   303.62809     -218698.9       0             -218253.56     -847.99345    
    140800   306.30423     -218708.02      0             -218258.76     -1620.8224    
    140900   305.984       -218709.9       0             -218261.11      165.57879    
    141000   306.59964     -218709.29      0             -218259.6      -272.54908    
    141100   306.09427     -218700.78      0             -218251.83     -30.076352    
    141200   307.52207     -218699.47      0             -218248.43     -133.28007    
    141300   305.68422     -218701.53      0             -218253.18      1165.5842    
    141400   306.21425     -218706.68      0             -218257.55      616.31977    
    141500   303.38678     -218703.34      0             -218258.36      17.719553    
    141600   303.82325     -218704.76      0             -218259.14     -1040.5751    
    141700   305.16075     -218706.21      0             -218258.63     -1517.33      
    141800   305.31468     -218701.01      0             -218253.2      -949.34987    
    141900   308.01076     -218701.33      0             -218249.56      70.053455    
    142000   307.50386     -218706.16      0             -218255.14     -527.0808     
    142100   305.46234     -218709.62      0             -218261.59     -633.54097    
    142200   301.51053     -218703.38      0             -218261.15      408.62096    
    142300   301.80357     -218701.54      0             -218258.88     -97.507234    
    142400   306.42705     -218703.22      0             -218253.78     -358.62713    
    142500   308.38307     -218699.09      0             -218246.78      661.6644     
    142600   306.46687     -218697.19      0             -218247.69      3.984868     
    142700   304.1144      -218704.93      0             -218258.89     -20.097185    
    142800   301.55444     -218703.61      0             -218261.32     -519.79698    
    142900   305.10352     -218707.53      0             -218260.03     -518.36581    
    143000   305.34135     -218703.99      0             -218256.14     -1212.317     
    143100   307.95698     -218702.92      0             -218251.23     -452.2305     
    143200   307.70442     -218705.09      0             -218253.77     -514.30241    
    143300   304.88225     -218710.52      0             -218263.34     -420.91416    
    143400   301.16942     -218706.01      0             -218264.28     -1222.9919    
    143500   304.18651     -218704.92      0             -218258.77     -918.55524    
    143600   302.93782     -218699.29      0             -218254.96     -479.66154    
    143700   305.8864      -218703.81      0             -218255.16     -426.43534    
    143800   305.38766     -218706.07      0             -218258.16     -1466.6511    
    143900   303.4083      -218709.75      0             -218264.73     -364.46685    
    144000   298.41451     -218710.42      0             -218272.73     -233.25606    
    144100   302.58954     -218711.41      0             -218267.6      -27.633557    
    144200   304.42412     -218706.9       0             -218260.4       451.83859    
    144300   304.08579     -218702.53      0             -218256.53     -311.09408    
    144400   304.96436     -218702.41      0             -218255.11      356.7875     
    144500   306.42432     -218705.96      0             -218256.52      253.56349    
    144600   305.02542     -218711.78      0             -218264.39      62.765751    
    144700   300.75308     -218707         0             -218265.88     -730.63102    
    144800   303.79114     -218705.76      0             -218260.18     -1567.2069    
    144900   304.75064     -218704.57      0             -218257.59     -192.66245    
    145000   306.86174     -218706.64      0             -218256.56      328.07651    
    145100   304.32152     -218703.73      0             -218257.38     -916.47061    
    145200   307.22963     -218710.79      0             -218260.17     -260.17044    
    145300   300.16227     -218706.25      0             -218265.99     -500.26043    
    145400   305.77371     -218713.71      0             -218265.23      146.59908    
    145500   303.24019     -218701.75      0             -218256.98     -475.75023    
    145600   306.8488      -218703.61      0             -218253.55     -146.76245    
    145700   303.90586     -218701.36      0             -218255.62      436.61226    
    145800   307.07132     -218709.35      0             -218258.96      576.21343    
    145900   303.41764     -218705.78      0             -218260.75     -252.96203    
    146000   302.40002     -218710.22      0             -218266.69      279.24276    
    146100   301.41971     -218708.76      0             -218266.66     -586.43994    
    146200   306.01651     -218707.3       0             -218258.47      226.4025     
    146300   303.91194     -218701.49      0             -218255.73      202.6984     
    146400   307.8472      -218707.51      0             -218255.98     -822.31576    
    146500   303.49306     -218703.39      0             -218258.25      998.99266    
    146600   302.06273     -218709.64      0             -218266.6      -582.09517    
    146700   301.9852      -218709.85      0             -218266.93     -559.40214    
    146800   306.35769     -218709.8       0             -218260.46      1278.1901    
    146900   307.68493     -218708.6       0             -218257.31      727.95253    
    147000   304.8479      -218704.89      0             -218257.77     -444.93025    
    147100   304.74787     -218706.37      0             -218259.39     -428.31627    
    147200   304.12134     -218707.16      0             -218261.1      -717.99784    
    147300   304.13203     -218707.94      0             -218261.86     -144.55028    
    147400   303.94026     -218705.63      0             -218259.84     -1439.7099    
    147500   308.70737     -218705.99      0             -218253.21     -250.43422    
    147600   304.95637     -218699.28      0             -218251.99      38.758948    
    147700   304.96721     -218704.73      0             -218257.43      699.02554    
    147800   301.98783     -218707.31      0             -218264.38     -597.78673    
    147900   302.29458     -218706.83      0             -218263.45     -669.13832    
    148000   302.05106     -218702.89      0             -218259.87     -252.05756    
    148100   307.92555     -218708.01      0             -218256.37     -915.65726    
    148200   308.34373     -218705.69      0             -218253.44     -796.72516    
    148300   305.5992      -218696.83      0             -218248.61     -109.74675    
    148400   310.02038     -218700.61      0             -218245.9       562.54106    
    148500   304.3105      -218700.79      0             -218254.46      476.75108    
    148600   306.4487      -218708.21      0             -218258.74     -322.06508    
    148700   304.6863      -218708.54      0             -218261.65      63.795321    
    148800   304.94236     -218708.75      0             -218261.49      117.74704    
    148900   307.09474     -218704.85      0             -218254.43     -457.22966    
    149000   307.45805     -218700.03      0             -218249.08      197.67297    
    149100   306.06759     -218702.1       0             -218253.18      20.678233    
    149200   301.81892     -218700.34      0             -218257.65     -253.10643    
    149300   304.15314     -218704.84      0             -218258.74     -874.42376    
    149400   306.2349      -218707.8       0             -218258.64      250.7332     
    149500   305.34797     -218705.62      0             -218257.76      791.10608    
    149600   307.73219     -218707.2       0             -218255.84      9.0689326    
    149700   305.15161     -218701.79      0             -218254.22     -245.42313    
    149800   304.37175     -218701.26      0             -218254.83     -68.200838    
    149900   304.45171     -218706.28      0             -218259.73     -351.22221    
    150000   303.25425     -218709.92      0             -218265.13      125.5335     
    150100   304.2266      -218710.37      0             -218264.16     -743.0114     
    150200   307.1729      -218704.11      0             -218253.57      62.675213    
    150300   305.09175     -218699.48      0             -218252        -372.18134    
    150400   304.89338     -218702.63      0             -218255.44      359.43365    
    150500   302.79153     -218705.07      0             -218260.97      837.63253    
    150600   308.58438     -218714.77      0             -218262.17      677.76385    
    150700   302.96695     -218702.81      0             -218258.44     -343.09415    
    150800   306.86589     -218699.64      0             -218249.56      253.19453    
    150900   308.92295     -218704.13      0             -218251.03      210.30305    
    151000   306.63319     -218707.69      0             -218257.95      553.06827    
    151100   302.05842     -218704.11      0             -218261.07      1618.9175    
    151200   304.09458     -218705.4       0             -218259.38      218.19041    
    151300   306.26907     -218706.68      0             -218257.47      587.88568    
    151400   311.46837     -218708.95      0             -218252.12     -697.42955    
    151500   304.74415     -218692.36      0             -218245.39      238.66108    
    151600   310.7752      -218705.62      0             -218249.8      -82.80405     
    151700   307.29104     -218706.97      0             -218256.26     -858.45246    
    151800   301.40499     -218701.4       0             -218259.32     -551.16564    
    151900   304.36923     -218706.66      0             -218260.24      550.46627    
    152000   306.15587     -218708.26      0             -218259.22      756.89531    
    152100   303.16119     -218700.23      0             -218255.58      525.38942    
    152200   306.7721      -218701.61      0             -218251.66     -329.17488    
    152300   308.32963     -218702.94      0             -218250.71     -254.45553    
    152400   304.947       -218705.17      0             -218257.9       213.72461    
    152500   304.40708     -218709.66      0             -218263.18      126.0319     
    152600   305.50715     -218710.15      0             -218262.06     -185.98935    
    152700   306.2079      -218707.49      0             -218258.37     -163.72133    
    152800   310.09921     -218708.37      0             -218253.54     -839.49572    
    152900   309.51719     -218699.07      0             -218245.1      -213.77953    
    153000   312.431       -218699.55      0             -218241.3       288.94464    
    153100   305.65343     -218697.97      0             -218249.67      9.6485518    
    153200   307.26068     -218705.93      0             -218255.26     -280.44775    
    153300   301.71854     -218703.12      0             -218260.59      72.347003    
    153400   305.44832     -218710.32      0             -218262.31     -508.04765    
    153500   302.28981     -218703.32      0             -218259.94      77.462294    
    153600   302.34218     -218694.96      0             -218251.51     -430.82677    
    153700   309.34546     -218703.93      0             -218250.21      50.672476    
    153800   301.97884     -218698.26      0             -218255.34     -616.94386    
    153900   307.76699     -218709.72      0             -218258.32      446.39502    
    154000   303.64649     -218705.19      0             -218259.83     -193.32237    
    154100   306.12734     -218708.17      0             -218259.17     -502.84853    
    154200   306.12848     -218706.46      0             -218257.45     -816.84036    
    154300   307.47098     -218702.61      0             -218251.64     -659.55584    
    154400   305.92165     -218698.89      0             -218250.19     -719.27562    
    154500   306.58211     -218705.75      0             -218256.08      407.11725    
    154600   305.60167     -218709.9       0             -218261.67     -628.43591    
    154700   305.25556     -218709.2       0             -218261.47      272.38873    
    154800   307.5299      -218710.2       0             -218259.15      84.636747    
    154900   308.3482      -218703.72      0             -218251.46     -417.88087    
    155000   311.61038     -218702.99      0             -218245.95      315.4433     
    155100   307.11363     -218700.87      0             -218250.42     -232.91125    
    155200   306.67586     -218705.42      0             -218255.62     -228.38753    
    155300   306.81233     -218708.85      0             -218258.84     -45.162772    
    155400   306.2084      -218709.53      0             -218260.41     -111.6727     
    155500   305.80021     -218711.24      0             -218262.72     -1096.0255    
    155600   306.3037      -218710.97      0             -218261.71     -113.28217    
    155700   305.79077     -218704.06      0             -218255.55      96.579575    
    155800   306.243       -218700.93      0             -218251.76     -598.91323    
    155900   308.45555     -218705.98      0             -218253.56     -150.90192    
    156000   305.32648     -218710.98      0             -218263.15      181.6851     
    156100   302.59086     -218709.08      0             -218265.27      80.654773    
    156200   304.06012     -218707.5       0             -218261.53      484.18593    
    156300   304.97078     -218704.16      0             -218256.86      489.74807    
    156400   306.32343     -218706.16      0             -218256.87      24.435125    
    156500   302.6008      -218702.95      0             -218259.12     -318.02905    
    156600   303.60135     -218710.72      0             -218265.42     -135.80741    
    156700   301.22837     -218713.11      0             -218271.3       74.953618    
    156800   303.02612     -218709.96      0             -218265.5      -722.35839    
    156900   303.29833     -218703.63      0             -218258.78      11.107516    
    157000   306.55505     -218705.34      0             -218255.71     -514.18626    
    157100   308.24362     -218708.72      0             -218256.61     -325.27502    
    157200   305.20103     -218708.01      0             -218260.37     -395.80258    
    157300   302.94894     -218709.86      0             -218265.52     -1054.9308    
    157400   303.05041     -218708.41      0             -218263.92     -700.47749    
    157500   305.41807     -218703.28      0             -218255.32      903.63771    
    157600   305.99185     -218702.34      0             -218253.53      340.95437    
    157700   305.14135     -218704.2       0             -218256.65     -1003.9369    
    157800   304.6009      -218708.53      0             -218261.77      65.463752    
    157900   304.97281     -218710.47      0             -218263.16     -2.4347778    
    158000   304.97801     -218708.79      0             -218261.47      1451.5127    
    158100   305.19136     -218707.27      0             -218259.64      3.9948821    
    158200   306.24633     -218707.06      0             -218257.89     -794.04027    
    158300   306.79875     -218706.56      0             -218256.57     -1203.0345    
    158400   307.14165     -218706.37      0             -218255.88     -326.77685    
    158500   305.80429     -218705.94      0             -218257.41     -1026.3825    
    158600   301.8791      -218704.64      0             -218261.87      126.18633    
    158700   303.2459      -218708.32      0             -218263.55     -207.91305    
    158800   300.80659     -218702.38      0             -218261.19      474.08006    
    158900   306.25517     -218702.23      0             -218253.04      1225.0158    
    159000   308.55521     -218705.78      0             -218253.21      766.58346    
    159100   304.06571     -218703.25      0             -218257.27     -703.13055    
    159200   303.24206     -218708.59      0             -218263.82     -650.08529    
    159300   302.43081     -218710.35      0             -218266.77     -574.15419    
    159400   303.95042     -218700.81      0             -218255        -866.66425    
    159500   307.76416     -218702.08      0             -218250.68     -489.31498    
    159600   305.74645     -218703.13      0             -218254.69     -943.73962    
    159700   299.90803     -218700.97      0             -218261.1      -1312.2353    
    159800   304.84703     -218709.74      0             -218262.62     -1696.8471    
    159900   307.4915      -218709.35      0             -218258.35     -426.353      
    160000   308.67223     -218704.45      0             -218251.72     -737.44815    
    160100   303.29464     -218698.02      0             -218253.17     -413.19481    
    160200   309.0968      -218709.03      0             -218255.67     -521.44625    
    160300   306.07235     -218707.38      0             -218258.46     -95.032504    
    160400   305.94424     -218709.08      0             -218260.34     -118.95867    
    160500   302.94516     -218703.64      0             -218259.31     -39.984424    
    160600   306.18704     -218703.1       0             -218254.01     -650.31399    
    160700   307.88758     -218703.61      0             -218252.03      95.962369    
    160800   305.93383     -218705.5       0             -218256.78      736.325      
    160900   303.64421     -218707.61      0             -218262.25     -510.83181    
    161000   305.83581     -218709.9       0             -218261.33     -584.57717    
    161100   305.99354     -218706.85      0             -218258.04     -1570.8613    
    161200   309.17268     -218702.96      0             -218249.49     -840.58503    
    161300   308.97711     -218698.71      0             -218245.53     -1310.8842    
    161400   307.32047     -218700.59      0             -218249.84      169.13861    
    161500   306.78991     -218705.67      0             -218255.7      -1195.937     
    161600   307.48585     -218711.48      0             -218260.49     -214.79149    
    161700   305.07575     -218710.14      0             -218262.68      505.30867    
    161800   302.06671     -218703.7       0             -218260.65      662.7097     
    161900   302.75714     -218695.77      0             -218251.72     -354.97295    
    162000   307.14478     -218702.14      0             -218251.64      941.95383    
    162100   306.1947      -218706.57      0             -218257.47      82.547109    
    162200   303.91532     -218706.31      0             -218260.55     -166.83756    
    162300   301.44914     -218701.92      0             -218259.78      386.27897    
    162400   304.65959     -218704.44      0             -218257.59     -595.90644    
    162500   307.10232     -218704.22      0             -218253.79     -1105.2979    
    162600   308.19536     -218697.23      0             -218245.19     -1689.0869    
    162700   306.52996     -218695.5       0             -218245.91     -1509.6427    
    162800   305.31852     -218702.29      0             -218254.48      411.36146    
    162900   303.55216     -218703.29      0             -218258.07     -411.59028    
    163000   303.9142      -218705.91      0             -218260.15     -1259.228     
    163100   302.85872     -218706.01      0             -218261.8      -229.75334    
    163200   303.85833     -218705.46      0             -218259.79      84.691238    
    163300   306.48856     -218702.29      0             -218252.76      339.24361    
    163400   307.19226     -218701.04      0             -218250.48     -625.56968    
    163500   304.99174     -218703.02      0             -218255.68      328.54603    
    163600   305.82991     -218711.85      0             -218263.28     -438.76312    
    163700   303.81463     -218707.53      0             -218261.92     -924.09846    
    163800   306.01021     -218705.69      0             -218256.86     -650.42426    
    163900   308.66432     -218705.42      0             -218252.69     -167.48546    
    164000   308.1881      -218706.52      0             -218254.5      -695.41239    
    164100   300.71475     -218706.14      0             -218265.08     -266.22053    
    164200   298.8051      -218704.77      0             -218266.51     -602.52416    
    164300   302.90476     -218706.17      0             -218261.89     -1155.7716    
    164400   303.81387     -218702.34      0             -218256.73      874.13504    
    164500   304.43388     -218701.78      0             -218255.27     -28.272099    
    164600   306.55837     -218705.61      0             -218255.98     -81.565817    
    164700   302.7129      -218704.21      0             -218260.22      184.42833    
    164800   301.02838     -218711.95      0             -218270.43     -44.534384    
    164900   298.99542     -218707.18      0             -218268.64     -375.35329    
    165000   303.9344      -218707.73      0             -218261.94     -415.64409    
    165100   299.14373     -218696.61      0             -218257.85     -755.31603    
    165200   306.53134     -218704.68      0             -218255.08     -623.49631    
    165300   303.79796     -218699.84      0             -218254.25     -462.42367    
    165400   302.32175     -218703.27      0             -218259.85     -664.1637     
    165500   304.1983      -218711.94      0             -218265.77     -472.73667    
    165600   303.89388     -218710.15      0             -218264.43      63.127961    
    165700   303.62456     -218701.92      0             -218256.59     -426.86674    
    165800   304.79406     -218701.5       0             -218254.46     -637.3738     
    165900   306.60695     -218704.6       0             -218254.89     -395.35085    
    166000   303.4489      -218704.25      0             -218259.18      492.66571    
    166100   298.6067      -218703.45      0             -218265.48      1220.7342    
    166200   303.50014     -218709.56      0             -218264.41      274.44073    
    166300   307.19425     -218703.84      0             -218253.27      151.96958    
    166400   305.99735     -218702.78      0             -218253.97      728.64475    
    166500   304.81514     -218705.68      0             -218258.6       359.04412    
    166600   304.02612     -218708.62      0             -218262.71      538.88853    
    166700   303.37242     -218707.79      0             -218262.83     -604.24367    
    166800   307.19075     -218704.37      0             -218253.81     -246.10391    
    166900   310.53668     -218705.15      0             -218249.68      46.373116    
    167000   307.47116     -218705.36      0             -218254.39     -624.29132    
    167100   303.22289     -218704.33      0             -218259.59     -162.93267    
    167200   304.37646     -218707.25      0             -218260.82     -724.78606    
    167300   305.08697     -218706.79      0             -218259.32     -224.27148    
    167400   304.3171      -218703.53      0             -218257.19     -330.99279    
    167500   309.21326     -218704.67      0             -218251.14     -211.14923    
    167600   311.04193     -218700.1       0             -218243.89     -93.751242    
    167700   309.01975     -218702.87      0             -218249.63     -39.609766    
    167800   306.26142     -218706.26      0             -218257.06     -400.69838    
    167900   305.08254     -218707.77      0             -218260.3      -1162.5029    
    168000   303.73669     -218706.57      0             -218261.08     -1679.9511    
    168100   305.42189     -218704.31      0             -218256.34     -362.58313    
    168200   308.17554     -218702.01      0             -218250.01     -817.62836    
    168300   307.41161     -218702.55      0             -218251.66      74.482028    
    168400   304.84181     -218706.44      0             -218259.32     -197.65803    
    168500   303.43866     -218706.13      0             -218261.07      158.03255    
    168600   307.01224     -218710.6       0             -218260.3      -172.44306    
    168700   308.12637     -218710.2       0             -218258.27     -172.26379    
    168800   305.36422     -218701.3       0             -218253.42     -501.65778    
    168900   308.25987     -218701.9       0             -218249.77     -502.94039    
    169000   303.88621     -218700.63      0             -218254.91     -837.8105     
    169100   300.13592     -218702.38      0             -218262.17     -1105.9693    
    169200   303.70626     -218707.88      0             -218262.43     -574.78216    
    169300   305.30079     -218705.91      0             -218258.12     -797.31578    
    169400   304.01155     -218697.19      0             -218251.29      79.089153    
    169500   308.53027     -218704.76      0             -218252.24     -570.19213    
    169600   305.91476     -218703.6       0             -218254.91     -451.16482    
    169700   305.33222     -218705.15      0             -218257.32     -413.1989     
    169800   306.05157     -218710.76      0             -218261.87      231.60796    
    169900   302.03285     -218710.8       0             -218267.81     -253.16617    
    170000   300.39255     -218710.42      0             -218269.83      280.4458     
    170100   305.20485     -218708.07      0             -218260.42      328.08242    
    170200   303.33748     -218700.55      0             -218255.64     -586.06433    
    170300   306.56437     -218702.92      0             -218253.28     -426.61289    
    170400   305.80707     -218704.75      0             -218256.22     -294.95059    
    170500   302.26652     -218706.3       0             -218262.96     -248.4789     
    170600   302.62759     -218706.28      0             -218262.41     -505.83901    
    170700   305.49643     -218704.56      0             -218256.48     -448.62922    
    170800   307.04041     -218700.83      0             -218250.49     -1158.7623    
    170900   305.96011     -218700.96      0             -218252.2      -345.46232    
    171000   307.64078     -218707.81      0             -218256.59     -315.83664    
    171100   304.61407     -218708.67      0             -218261.89     -286.54681    
    171200   305.28587     -218710.91      0             -218263.14     -226.31521    
    171300   306.86924     -218708.57      0             -218258.48      16.556792    
    171400   304.03983     -218696.47      0             -218250.53      358.55791    
    171500   307.38196     -218702.08      0             -218251.24     -56.952902    
    171600   304.75101     -218702.51      0             -218255.53      710.27771    
    171700   304.46509     -218705.07      0             -218258.51     -624.15296    
    171800   305.70478     -218707.49      0             -218259.11     -858.13847    
    171900   303.76312     -218703.44      0             -218257.91     -126.81189    
    172000   305.73691     -218702.78      0             -218254.35     -186.67972    
    172100   311.18425     -218704.14      0             -218247.72     -118.00699    
    172200   310.21793     -218705.36      0             -218250.36     -642.79172    
    172300   304.80671     -218705.34      0             -218258.27     -1155.0856    
    172400   304.42014     -218706.33      0             -218259.83     -1045.4263    
    172500   306.71469     -218708.99      0             -218259.12     -26.882648    
    172600   308.37433     -218708.85      0             -218256.55     -137.57016    
    172700   306.99776     -218701.61      0             -218251.34      722.93982    
    172800   309.65675     -218702.13      0             -218247.95     -557.95358    
    172900   303.08538     -218700.63      0             -218256.09     -700.42018    
    173000   305.14586     -218707.17      0             -218259.6       470.35583    
    173100   303.60459     -218705.66      0             -218260.35     -836.5515     
    173200   304.25341     -218705.49      0             -218259.24     -431.59638    
    173300   309.19586     -218705.1       0             -218251.59     -1224.2685    
    173400   311.65811     -218706.5       0             -218249.39      193.51315    
    173500   306.89704     -218704.8       0             -218254.67     -145.68325    
    173600   304.41993     -218707.7       0             -218261.21     -36.518056    
    173700   305.27624     -218708.9       0             -218261.14     -261.4435     
    173800   305.65262     -218707.12      0             -218258.81     -41.911146    
    173900   306.87924     -218704.45      0             -218254.34     -1180.3847    
    174000   303.7135      -218696.48      0             -218251.02     -21.857071    
    174100   303.60743     -218697.95      0             -218252.65     -425.95783    
    174200   304.6024      -218707.95      0             -218261.18     -211.38851    
    174300   305.35552     -218712.07      0             -218264.2      -616.07217    
    174400   305.10212     -218708.71      0             -218261.21     -605.6214     
    174500   305.02467     -218701.42      0             -218254.04     -659.57967    
    174600   306.3785      -218702.81      0             -218253.44     -1084.9869    
    174700   309.09867     -218709.22      0             -218255.86     -440.48188    
    174800   303.18608     -218703.76      0             -218259.08      135.46408    
    174900   305.94852     -218710.12      0             -218261.38     -57.574856    
    175000   305.21214     -218711.33      0             -218263.67     -1192.1959    
    175100   301.71066     -218704.55      0             -218262.02     -919.9181     
    175200   305.90447     -218704.09      0             -218255.41     -928.6684     
    175300   302.93413     -218697.18      0             -218252.86     -212.42753    
    175400   305.48575     -218702.65      0             -218254.59      598.18729    
    175500   304.71223     -218710.11      0             -218263.19     -487.42314    
    175600   300.67074     -218707.41      0             -218266.42      186.93817    
    175700   304.48099     -218709.68      0             -218263.1       189.42152    
    175800   306.1402      -218707.71      0             -218258.69      639.98364    
    175900   305.94565     -218705.78      0             -218257.04      25.627738    
    176000   304.93541     -218704.21      0             -218256.95     -589.24317    
    176100   303.52615     -218702.74      0             -218257.55     -1004.4911    
    176200   304.55814     -218708.53      0             -218261.83     -1251.3739    
    176300   301.58981     -218707.03      0             -218264.69     -1215.1705    
    176400   303.66003     -218704.3       0             -218258.92      49.522648    
    176500   307.18893     -218704.77      0             -218254.21     -450.08494    
    176600   307.07662     -218705.37      0             -218254.98     -681.67761    
    176700   307.24723     -218710.51      0             -218259.87      463.47054    
    176800   303.96522     -218713.47      0             -218267.64     -248.98861    
    176900   300.06688     -218707.55      0             -218267.44      307.34744    
    177000   306.02231     -218712.81      0             -218263.96      193.21088    
    177100   301.71245     -218702.18      0             -218259.66      488.79667    
    177200   309.57499     -218707.92      0             -218253.87     -815.47395    
    177300   306.3829      -218701.83      0             -218252.45     -532.15425    
    177400   305.54872     -218704.72      0             -218256.57     -599.0381     
    177500   301.47011     -218707.38      0             -218265.21     -360.59717    
    177600   301.02841     -218706.51      0             -218264.99     -282.87909    
    177700   301.20881     -218701.81      0             -218260.02     -1336.0988    
    177800   304.96203     -218704.28      0             -218256.99     -74.375005    
    177900   304.90371     -218703.94      0             -218256.74     -475.33965    
    178000   301.62348     -218700.2       0             -218257.8      -832.26174    
    178100   304.94782     -218710.73      0             -218263.46     -329.44387    
    178200   302.73256     -218712.75      0             -218268.73     -364.61818    
    178300   302.73161     -218707.81      0             -218263.79      92.056073    
    178400   306.49432     -218706.49      0             -218256.95     -313.39632    
    178500   310.40399     -218710.66      0             -218255.38     -143.72101    
    178600   306.49667     -218705.29      0             -218255.74     -100.91888    
    178700   306.95214     -218709.69      0             -218259.47     -1145.8618    
    178800   302.37175     -218710.88      0             -218267.38     -661.99615    
    178900   305.58261     -218713.19      0             -218264.99      222.82798    
    179000   303.18676     -218704.23      0             -218259.54      108.89889    
    179100   304.85622     -218704.15      0             -218257.01     -501.46753    
    179200   307.88199     -218707.89      0             -218256.32     -682.99494    
    179300   303.91197     -218704.43      0             -218258.68     -707.94051    
    179400   303.12259     -218710.47      0             -218265.87      23.983593    
    179500   303.31171     -218713.98      0             -218269.11     -511.39541    
    179600   304.74005     -218708.06      0             -218261.1      -801.19703    
    179700   304.13139     -218703.09      0             -218257.02      401.63737    
    179800   304.89753     -218705.05      0             -218257.85     -496.85738    
    179900   306.58137     -218708.96      0             -218259.29      252.40851    
    180000   303.43233     -218705.96      0             -218260.92     -278.62544    
    180100   304.72148     -218708.97      0             -218262.03      764.09055    
    180200   302.5195      -218703.32      0             -218259.61      326.43603    
    180300   307.05725     -218703.17      0             -218252.8      -1139.3728    
    180400   308.04769     -218704.04      0             -218252.22     -315.76479    
    180500   304.68216     -218705.75      0             -218258.86     -845.99746    
    180600   301.57868     -218707.71      0             -218265.38     -709.44232    
    180700   304.32868     -218709.26      0             -218262.89      409.59273    
    180800   308.15061     -218709.41      0             -218257.44      5.1258298    
    180900   309.09582     -218708.07      0             -218254.71     -621.3149     
    181000   309.7906      -218710.94      0             -218256.57     -248.65614    
    181100   302.2888      -218707.69      0             -218264.32      331.04647    
    181200   302.78156     -218712.01      0             -218267.92     -63.289911    
    181300   302.56327     -218708.64      0             -218264.86     -84.998835    
    181400   302.5054      -218703.4       0             -218259.71      198.1393     
    181500   305.3528      -218702.84      0             -218254.98      1348.0814    
    181600   306.53637     -218703.96      0             -218254.36     -144.1989     
    181700   303.65964     -218706.44      0             -218261.06     -663.72124    
    181800   301.9546      -218710.1       0             -218267.22     -213.04513    
    181900   300.43607     -218705.57      0             -218264.91     -22.295172    
    182000   307.29613     -218711.04      0             -218260.33     -293.32119    
    182100   302.87093     -218702.07      0             -218257.85     -275.9652     
    182200   306.27938     -218705.9       0             -218256.68      915.09288    
    182300   305.0265      -218706.07      0             -218258.68     -124.37602    
    182400   299.63386     -218705.41      0             -218265.93     -566.38961    
    182500   299.15196     -218706.63      0             -218267.86     -718.31094    
    182600   303.53946     -218705.81      0             -218260.6      -171.60452    
    182700   305.54521     -218704.79      0             -218256.64      485.28593    
    182800   302.53737     -218700.64      0             -218256.9       326.60835    
    182900   306.5041      -218708.44      0             -218258.88      250.08694    
    183000   300.18623     -218707.28      0             -218267         1015.395     
    183100   299.81214     -218708.01      0             -218268.27     -213.03267    
    183200   305.31556     -218709.65      0             -218261.84     -584.43704    
    183300   304.18308     -218704.74      0             -218258.59      14.718822    
    183400   304.17274     -218702.51      0             -218256.38     -49.376107    
    183500   309.05005     -218707.28      0             -218253.99     -94.806827    
    183600   303.90901     -218701.45      0             -218255.7      -147.80985    
    183700   302.63996     -218707.52      0             -218263.64      308.28444    
    183800   304.43849     -218711.89      0             -218265.36      10.357153    
    183900   304.46819     -218706.96      0             -218260.4      -281.77497    
    184000   305.96357     -218703.8       0             -218255.04     -1049.1233    
    184100   303.19686     -218700.28      0             -218255.58      473.95634    
    184200   302.92634     -218701.75      0             -218257.45     -396.97623    
    184300   304.73879     -218708.11      0             -218261.15     -864.26134    
    184400   301.69238     -218708.26      0             -218265.77     -722.20188    
    184500   301.24457     -218711.78      0             -218269.94     -277.31796    
    184600   302.30216     -218706.03      0             -218262.64     -384.81139    
    184700   302.16075     -218699.71      0             -218256.53      600.95123    
    184800   305.10504     -218702.38      0             -218254.87     -284.24389    
    184900   302.54988     -218699.38      0             -218255.62      456.82375    
    185000   303.82054     -218707.8       0             -218262.18      29.554103    
    185100   302.15495     -218709.41      0             -218266.24     -151.68155    
    185200   305.59929     -218711.06      0             -218262.83     -551.09489    
    185300   306.26159     -218706.92      0             -218257.72     -963.86997    
    185400   305.66117     -218704.99      0             -218256.68     -773.77499    
    185500   303.80194     -218702.47      0             -218256.88     -193.96874    
    185600   306.16777     -218706.99      0             -218257.93     -305.78206    
    185700   302.13242     -218705.71      0             -218262.57      45.299653    
    185800   301.71863     -218709.07      0             -218266.54     -800.96427    
    185900   303.61731     -218708.73      0             -218263.41      101.33638    
    186000   308.83976     -218707.44      0             -218254.46      606.56772    
    186100   307.02537     -218703.67      0             -218253.35      41.559126    
    186200   307.91384     -218708.42      0             -218256.8      -539.85945    
    186300   303.84749     -218708.64      0             -218262.98     -638.67571    
    186400   302.29891     -218707.76      0             -218264.37     -146.73409    
    186500   303.76159     -218701.75      0             -218256.22     -66.977298    
    186600   306.58947     -218698.63      0             -218248.95      20.592608    
    186700   305.25134     -218702.53      0             -218254.81     -173.52711    
    186800   306.39739     -218711.03      0             -218261.63      641.01197    
    186900   302.41624     -218706.68      0             -218263.13     -178.59426    
    187000   305.39303     -218707.51      0             -218259.59     -8.3482006    
    187100   306.63031     -218703.32      0             -218253.58     -336.96859    
    187200   305.67166     -218698.89      0             -218250.55      433.49573    
    187300   306.87607     -218705.24      0             -218255.14      170.04275    
    187400   302.85392     -218707.47      0             -218263.27     -1601.0312    
    187500   302.56992     -218707.66      0             -218263.87     -570.26157    
    187600   307.09787     -218708.4       0             -218257.97     -518.21586    
    187700   308.39249     -218705.74      0             -218253.41     -13.345193    
    187800   307.8368      -218705.62      0             -218254.11     -1145.1395    
    187900   305.05327     -218706.28      0             -218258.85      183.93451    
    188000   304.40321     -218708.24      0             -218261.77      448.53705    
    188100   303.96046     -218707.25      0             -218261.42     -1611.2891    
    188200   305.40124     -218707.98      0             -218260.04     -724.7175     
    188300   307.74383     -218706.69      0             -218255.32     -1055.9535    
    188400   307.49147     -218703.02      0             -218252.02     -591.01851    
    188500   304.28455     -218701.09      0             -218254.79      220.50708    
    188600   304.0462      -218709.33      0             -218263.38     -7.5955936    
    188700   301.28344     -218705.83      0             -218263.93      426.98259    
    188800   308.14872     -218710.63      0             -218258.67     -206.47632    
    188900   310.22092     -218709.13      0             -218254.13     -669.4748     
    189000   305.34061     -218702.82      0             -218254.97     -156.99053    
    189100   304.03395     -218702.41      0             -218256.48     -899.66897    
    189200   302.0386      -218702.35      0             -218259.35     -656.75617    
    189300   303.66177     -218706.03      0             -218260.64     -1181.045     
    189400   304.33438     -218706.28      0             -218259.91     -747.60677    
    189500   307.06133     -218704.68      0             -218254.31      20.422961    
    189600   310.57134     -218706.81      0             -218251.29     -236.12084    
    189700   302.28616     -218699.29      0             -218255.92     -1379.6836    
    189800   304.42761     -218708.34      0             -218261.84      190.02111    
    189900   302.74826     -218707.01      0             -218262.97     -803.73269    
    190000   301.67228     -218703.19      0             -218260.72     -713.31052    
    190100   306.2126      -218698.66      0             -218249.53     -389.00612    
    190200   306.06699     -218698.21      0             -218249.3      -176.9518     
    190300   303.88684     -218701.56      0             -218255.84     -304.35828    
    190400   303.25184     -218705.36      0             -218260.57      298.29141    
    190500   307.50738     -218712.16      0             -218261.13     -734.72639    
    190600   305.16085     -218705.07      0             -218257.49     -1830.3831    
    190700   306.77097     -218699.88      0             -218249.94     -87.16659     
    190800   309.39756     -218699.93      0             -218246.13      258.70092    
    190900   306.48165     -218706.27      0             -218256.75      793.53356    
    191000   303.86066     -218707.25      0             -218261.57     -173.65461    
    191100   303.64042     -218706.68      0             -218261.32     -413.43269    
    191200   304.07835     -218702.45      0             -218256.45     -340.61146    
    191300   307.40191     -218703.73      0             -218252.86     -503.53358    
    191400   307.26436     -218703.66      0             -218252.99      361.00609    
    191500   306.04749     -218710.23      0             -218261.34     -43.741965    
    191600   305.15103     -218713.41      0             -218265.85     -718.9646     
    191700   304.79899     -218709.67      0             -218262.62      690.0997     
    191800   306.50619     -218706.55      0             -218257        -115.0493     
    191900   307.61588     -218706.15      0             -218254.97      216.1556     
    192000   303.10872     -218700.96      0             -218256.38      285.25907    
    192100   306.86625     -218708.27      0             -218258.19      467.40378    
    192200   307.5429      -218713.34      0             -218262.26     -986.98051    
    192300   299.83972     -218709.19      0             -218269.41     -247.94208    
    192400   300.30606     -218712.4       0             -218271.94     -216.53646    
    192500   305.91246     -218709.78      0             -218261.09      35.528875    
    192600   306.76461     -218706.69      0             -218256.75     -456.60594    
    192700   308.01724     -218705.87      0             -218254.1      -423.28354    
    192800   308.52755     -218707.75      0             -218255.22      430.40953    
    192900   302.93324     -218706.32      0             -218262         396.41035    
    193000   298.80155     -218704.09      0             -218265.83      142.90872    
    193100   306.92525     -218712.17      0             -218262        -532.16817    
    193200   302.96053     -218703.32      0             -218258.96     -1220.6893    
    193300   304.66503     -218705         0             -218258.14     -1891.7229    
    193400   302.37298     -218701.12      0             -218257.63     -798.91259    
    193500   308.42854     -218707.8       0             -218255.43     -870.3231     
    193600   305.62796     -218702.41      0             -218254.15     -424.58914    
    193700   304.52218     -218702.94      0             -218256.29      201.99585    
    193800   304.65144     -218707.72      0             -218260.88     -619.10457    
    193900   302.89314     -218707.65      0             -218263.4      -1444.8859    
    194000   302.52321     -218705.38      0             -218261.67     -1322.5791    
    194100   307.47412     -218704.52      0             -218253.55      197.24077    
    194200   305.97255     -218701.55      0             -218252.78      282.60457    
    194300   307.44177     -218708.46      0             -218257.53     -1250.7897    
    194400   303.48951     -218710.11      0             -218264.98      56.119211    
    194500   304.00888     -218711.9       0             -218266         113.93306    
    194600   301.12229     -218704.49      0             -218262.83      260.12281    
    194700   304.95407     -218704.8       0             -218257.52     -756.76897    
    194800   305.11941     -218701.41      0             -218253.88     -538.22343    
    194900   303.43185     -218699.57      0             -218254.52     -131.58882    
    195000   302.72263     -218705.54      0             -218261.53     -20.343416    
    195100   301.6871      -218709.32      0             -218266.83     -909.0599     
    195200   302.42516     -218707.46      0             -218263.89     -298.3458     
    195300   303.61704     -218702.6       0             -218257.28     -568.17011    
    195400   307.97762     -218707.45      0             -218255.73     -395.93928    
    195500   306.30886     -218705.92      0             -218256.65      758.18896    
    195600   303.28644     -218704.75      0             -218259.92     -347.81882    
    195700   303.41323     -218711.52      0             -218266.5       477.5529     
    195800   300.72779     -218710.81      0             -218269.73      38.534632    
    195900   305.83349     -218709.11      0             -218260.54      43.311407    
    196000   306.78656     -218705.89      0             -218255.93      697.27406    
    196100   308.31222     -218708.2       0             -218256         576.2557     
    196200   305.18955     -218705.78      0             -218258.15     -529.53537    
    196300   303.40869     -218707.93      0             -218262.92      401.62686    
    196400   304.38676     -218713.25      0             -218266.8       57.120354    
    196500   304.62243     -218709.47      0             -218262.67     -646.6043     
    196600   305.82857     -218702.93      0             -218254.36     -491.54786    
    196700   306.59837     -218703.53      0             -218253.84     -209.65343    
    196800   305.34938     -218706.09      0             -218258.23     -445.97972    
    196900   305.22028     -218710.83      0             -218263.16     -923.11355    
    197000   303.1412      -218708.88      0             -218264.26     -501.02934    
    197100   307.6468      -218706.93      0             -218255.7       84.81088     
    197200   303.64892     -218696.88      0             -218251.51      369.57258    
    197300   308.55885     -218707.41      0             -218254.84     -326.56821    
    197400   303.72532     -218706.28      0             -218260.8       861.45005    
    197500   304.36143     -218710.31      0             -218263.89      305.68796    
    197600   303.40781     -218707.17      0             -218262.16     -391.21378    
    197700   302.91006     -218702.18      0             -218257.9       583.86845    
    197800   306.94033     -218706.95      0             -218256.76     -23.952906    
    197900   302.57175     -218701.54      0             -218257.75      472.18317    
    198000   303.36507     -218703.87      0             -218258.92     -636.18719    
    198100   300.85376     -218702.92      0             -218261.65     -1035.4885    
    198200   305.27202     -218710.73      0             -218262.99     -936.36928    
    198300   302.31258     -218704.36      0             -218260.96     -1685.0204    
    198400   306.7033      -218703.56      0             -218253.72     -198.19253    
    198500   306.90737     -218702.28      0             -218252.13     -556.44514    
    198600   306.2387      -218706.58      0             -218257.42      621.88837    
    198700   307.28578     -218711.79      0             -218261.09      102.12923    
    198800   305.82953     -218709.45      0             -218260.88      49.344945    
    198900   306.94662     -218709.69      0             -218259.49      505.65839    
    199000   305.66911     -218706.14      0             -218257.81      280.86813    
    199100   309.07776     -218707.21      0             -218253.89      371.43546    
    199200   311.71707     -218705.05      0             -218247.85     -110.80345    
    199300   304.17787     -218695.77      0             -218249.62      406.3618     
    199400   304.35572     -218705.39      0             -218258.99      10.215648    
    199500   301.88826     -218702.97      0             -218260.18     -747.12468    
    199600   303.10711     -218702.92      0             -218258.35     -424.03658    
    199700   304.34632     -218701.29      0             -218254.9      -243.8976     
    199800   309.53383     -218702.86      0             -218248.87     -35.965278    
    199900   310.26234     -218704.55      0             -218249.49      393.16595    
    200000   306.0691      -218708.79      0             -218259.88      259.60213    
    200100   302.24086     -218705.35      0             -218262.04     -95.425287    
    200200   304.81861     -218707.02      0             -218259.94      770.13914    
    200300   306.86933     -218704.93      0             -218254.84      134.14118    
    200400   307.88194     -218702.37      0             -218250.79     -390.00613    
    200500   305.59376     -218698.85      0             -218250.63     -540.25483    
    200600   306.2911      -218707.95      0             -218258.71     -819.2098     
    200700   299.94645     -218703.32      0             -218263.39     -412.66375    
    200800   304.73824     -218708.78      0             -218261.82     -916.90344    
    200900   303.28909     -218699.86      0             -218255.02     -669.02659    
    201000   308.35077     -218703.64      0             -218251.38     -1194.2411    
    201100   307.41394     -218704.74      0             -218253.85     -400.73557    
    201200   303.80663     -218702.06      0             -218256.46      88.656093    
    201300   303.38475     -218704.49      0             -218259.52      210.30168    
    201400   305.59234     -218708.73      0             -218260.51      969.33896    
    201500   306.81349     -218707.46      0             -218257.46      241.18331    
    201600   307.39526     -218701.4       0             -218250.54     -38.138625    
    201700   307.32901     -218701.93      0             -218251.16     -158.4012     
    201800   303.91097     -218704.53      0             -218258.78     -880.59789    
    201900   301.87609     -218703.94      0             -218261.17     -72.958313    
    202000   301.3634      -218702.56      0             -218260.54     -414.78843    
    202100   306.56266     -218706.71      0             -218257.07     -544.62336    
    202200   308.2177      -218702.43      0             -218250.37     -1330.5416    
    202300   309.93681     -218698.78      0             -218244.2      -1129.6859    
    202400   306.16052     -218702.19      0             -218253.14     -166.39286    
    202500   305.24984     -218706.03      0             -218258.32      69.570781    
    202600   305.60144     -218708.22      0             -218259.99      778.93246    
    202700   304.9453      -218707.65      0             -218260.39      153.32247    
    202800   304.46643     -218704.01      0             -218257.44      20.785113    
    202900   308.46781     -218704.12      0             -218251.68      193.4754     
    203000   307.11237     -218702.68      0             -218252.23      680.37497    
    203100   306.44467     -218711.18      0             -218261.71     -60.955559    
    203200   302.28969     -218708.36      0             -218264.99     -394.56944    
    203300   305.1224      -218708.35      0             -218260.83     -820.84643    
    203400   305.67228     -218704.01      0             -218255.67     -343.88996    
    203500   303.25385     -218698.4       0             -218253.62     -1696.6552    
    203600   305.06184     -218702.19      0             -218254.75     -257.54765    
    203700   302.21098     -218700.26      0             -218257        -743.78435    
    203800   302.49631     -218701.74      0             -218258.06     -415.71001    
    203900   305.03261     -218706.22      0             -218258.82      350.6538     
    204000   305.89577     -218707.56      0             -218258.9      -958.85209    
    204100   304.26924     -218705.45      0             -218259.17      435.61624    
    204200   305.31149     -218706.8       0             -218259         615.20901    
    204300   307.25105     -218707.74      0             -218257.09      643.62446    
    204400   302.32666     -218700.89      0             -218257.47     -186.22766    
    204500   304.55062     -218706.79      0             -218260.1      -994.6929     
    204600   304.37585     -218711.3       0             -218264.86     -1193.801     
    204700   302.2499      -218707.82      0             -218264.5       372.10271    
    204800   306.35821     -218704.51      0             -218255.17     -197.39386    
    204900   307.5747      -218704.13      0             -218253         217.51062    
    205000   306.66511     -218705.02      0             -218255.23      291.59148    
    205100   305.56336     -218709.33      0             -218261.16      231.42916    
    205200   301.53429     -218709.26      0             -218267         528.57949    
    205300   304.85225     -218712.22      0             -218265.09     -1496.2115    
    205400   303.11224     -218697.9       0             -218253.32     -41.092653    
    205500   307.69299     -218704.44      0             -218253.15      19.487263    
    205600   306.03079     -218706.75      0             -218257.89      233.27387    
    205700   305.52209     -218710.71      0             -218262.6       414.11543    
    205800   304.63421     -218710.48      0             -218263.67      684.55117    
    205900   305.87187     -218705.72      0             -218257.1       175.52334    
    206000   309.66514     -218705.63      0             -218251.44      1023.765     
    206100   310.70073     -218709.65      0             -218253.94     -165.01816    
    206200   308.26066     -218710.4       0             -218258.27     -147.04653    
    206300   303.98506     -218705.18      0             -218259.32      740.51992    
    206400   302.70421     -218702.66      0             -218258.68      1199.5949    
    206500   306.95075     -218708.37      0             -218258.16      98.25282     
    206600   305.70943     -218706.88      0             -218258.49      82.56728     
    206700   303.48521     -218703.73      0             -218258.61      215.78999    
    206800   302.22778     -218702.23      0             -218258.95     -676.73037    
    206900   305.43598     -218706.53      0             -218258.54      127.26908    
    207000   307.61521     -218706.41      0             -218255.23     -1055.9773    
    207100   307.60341     -218702.29      0             -218251.12      168.2146     
    207200   305.46526     -218701.72      0             -218253.69     -194.24472    
    207300   305.90779     -218710         0             -218261.32     -1155.9873    
    207400   303.21401     -218708.48      0             -218263.75     -500.38167    
    207500   304.04147     -218707         0             -218261.06     -134.45132    
    207600   305.50471     -218705.31      0             -218257.23      95.867508    
    207700   304.82357     -218703.4       0             -218256.31     -486.66436    
    207800   305.22933     -218705.18      0             -218257.49      254.84976    
    207900   306.60121     -218707.44      0             -218257.74      166.07825    
    208000   304.93488     -218705.43      0             -218258.18      544.81765    
    208100   306.42872     -218712.02      0             -218262.58      125.79512    
    208200   302.81576     -218711.18      0             -218267.04     -60.537399    
    208300   302.17449     -218706.79      0             -218263.59      261.83495    
    208400   302.78317     -218701.03      0             -218256.93      741.52882    
    208500   305.84697     -218703.44      0             -218254.85      58.413957    
    208600   307.70849     -218708.41      0             -218257.09     -87.015829    
    208700   305.01306     -218711.97      0             -218264.6      -847.32201    
    208800   298.91716     -218706.03      0             -218267.61      962.49428    
    208900   303.33441     -218708.75      0             -218263.85     -675.15083    
    209000   307.02967     -218710.92      0             -218260.59     -646.26331    
    209100   304.76187     -218703.79      0             -218256.79     -4.763943     
    209200   305.90856     -218702.25      0             -218253.57      487.41592    
    209300   305.30487     -218699.19      0             -218251.4       193.70326    
    209400   306.33271     -218706.95      0             -218257.65      587.27043    
    209500   301.11572     -218705.03      0             -218263.37      357.62085    
    209600   306.09039     -218711.05      0             -218262.1       301.02349    
    209700   304.83791     -218703.7       0             -218256.59      105.04378    
    209800   310.01064     -218705.9       0             -218251.2      -301.23174    
    209900   306.77759     -218702.72      0             -218252.77     -3.8182433    
    210000   304.56141     -218702.49      0             -218255.78      14.87094     
    210100   307.91392     -218709.56      0             -218257.94      598.27056    
    210200   303.94216     -218707.07      0             -218261.27      307.26716    
    210300   305.21231     -218708.6       0             -218260.94     -445.18141    
    210400   306.10219     -218705.41      0             -218256.45     -599.13143    
    210500   306.95784     -218702.2       0             -218251.98      486.69477    
    210600   307.74187     -218704.6       0             -218253.23     -310.00695    
    210700   306.53913     -218710.18      0             -218260.57      506.74207    
    210800   304.0098      -218709.66      0             -218263.76     -91.365431    
    210900   305.30393     -218709.38      0             -218261.59      483.54041    
    211000   303.47884     -218704.09      0             -218258.98      1313.2702    
    211100   306.61648     -218707.75      0             -218258.04     -393.87636    
    211200   305.69907     -218706.88      0             -218258.51     -1028.7403    
    211300   305.62761     -218706.25      0             -218257.99     -626.68467    
    211400   300.93289     -218699.27      0             -218257.88     -1048.2939    
    211500   302.43491     -218704.7       0             -218261.12      234.0513     
    211600   303.67515     -218709.79      0             -218264.39      351.09215    
    211700   302.18605     -218705.07      0             -218261.85      104.0164     
    211800   302.83017     -218699.06      0             -218254.89     -1431.3611    
    211900   306.2731      -218701.12      0             -218251.91     -408.8749     
    212000   303.90359     -218701.1       0             -218255.36      356.71431    
    212100   306.1867      -218709.42      0             -218260.33     -68.83126     
    212200   299.8572      -218703.29      0             -218263.49     -581.18051    
    212300   308.08861     -218707.87      0             -218255.99      42.509937    
    212400   310.47062     -218705.92      0             -218250.55     -387.43706    
    212500   306.65359     -218703.1       0             -218253.33      116.92874    
    212600   303.12479     -218704.9       0             -218260.3      -37.33737     
    212700   304.71726     -218709.26      0             -218262.32     -1714.7442    
    212800   305.24907     -218706.83      0             -218259.12     -587.86117    
    212900   305.13905     -218700.27      0             -218252.72     -619.06966    
    213000   307.37189     -218694.97      0             -218244.15     -408.11683    
    213100   308.64129     -218698.27      0             -218245.58     -108.31393    
    213200   306.44485     -218700.35      0             -218250.88     -253.40851    
    213300   307.51883     -218708.03      0             -218256.99      15.213819    
    213400   301.92102     -218705.34      0             -218262.51     -114.49449    
    213500   305.67846     -218711.14      0             -218262.8       510.44743    
    213600   305.29735     -218704.68      0             -218256.9      -405.79939    
    213700   307.13229     -218701.83      0             -218251.35      452.62613    
    213800   308.62033     -218706.14      0             -218253.48      133.5122     
    213900   302.09934     -218700.58      0             -218257.48      495.67003    
    214000   302.69666     -218703.03      0             -218259.06     -491.07986    
    214100   302.43927     -218704.55      0             -218260.95      117.68969    
    214200   305.90913     -218707.19      0             -218258.51     -1446.7647    
    214300   309.25187     -218702.77      0             -218249.19     -1644.5068    
    214400   306.56284     -218700.75      0             -218251.11     -1270.8709    
    214500   303.20375     -218701.69      0             -218256.98     -326.82308    
    214600   301.70877     -218703.13      0             -218260.61     -734.83997    
    214700   304.93522     -218708.09      0             -218260.84     -603.82165    
    214800   300.77303     -218701.11      0             -218259.96     -109.34383    
    214900   301.92202     -218700.94      0             -218258.11      431.28199    
    215000   306.03338     -218706.52      0             -218257.65      1011.128     
    215100   305.67657     -218706.47      0             -218258.12      205.1416     
    215200   301.73548     -218701.87      0             -218259.31     -112.72044    
    215300   304.11575     -218706.53      0             -218260.48     -276.01746    
    215400   305.0159      -218708.71      0             -218261.34     -114.27072    
    215500   303.89976     -218705.71      0             -218259.98     -626.49809    
    215600   304.05062     -218700.22      0             -218254.26     -1065.9668    
    215700   305.83603     -218699.67      0             -218251.1      -1289.1549    
    215800   305.35074     -218702.61      0             -218254.75     -639.20903    
    215900   304.11029     -218708.67      0             -218262.63     -1215.1459    
    216000   300.87408     -218703.29      0             -218262        -539.52038    
    216100   305.19479     -218705.04      0             -218257.41     -1397.7118    
    216200   307.17108     -218705.08      0             -218254.55      241.12847    
    216300   304.98593     -218702.66      0             -218255.34     -283.8039     
    216400   300.96344     -218706.68      0             -218265.25     -448.86636    
    216500   304.24272     -218711.98      0             -218265.75     -45.745043    
    216600   304.91359     -218707.11      0             -218259.89     -49.127508    
    216700   305.00516     -218702.11      0             -218254.76     -982.24931    
    216800   306.38235     -218704.02      0             -218254.64     -782.66511    
    216900   304.68513     -218704.89      0             -218258.01     -1003.533     
    217000   304.57784     -218707.86      0             -218261.13     -1165.7805    
    217100   303.29773     -218705.59      0             -218260.74     -425.83917    
    217200   303.58187     -218704.98      0             -218259.71     -888.38529    
    217300   303.98703     -218703.7       0             -218257.83     -429.37125    
    217400   306.74369     -218705.19      0             -218255.29     -1749.6208    
    217500   307.42131     -218704.13      0             -218253.23     -944.64699    
    217600   306.5498      -218703.36      0             -218253.74     -335.44948    
    217700   305.00747     -218708.31      0             -218260.95      953.9        
    217800   302.01494     -218707.91      0             -218264.94      1018.1417    
    217900   303.1175      -218707.27      0             -218262.68      822.85826    
    218000   309.61692     -218709.32      0             -218255.2      -777.10779    
    218100   309.41879     -218703.36      0             -218249.53     -982.24163    
    218200   308.45372     -218704.5       0             -218252.08     -791.17146    
    218300   306.56682     -218706.07      0             -218256.43     -675.16306    
    218400   304.27201     -218706.95      0             -218260.67      167.11003    
    218500   304.54521     -218708.38      0             -218261.7       32.353218    
    218600   304.43735     -218703.35      0             -218256.83     -1444.5624    
    218700   307.74203     -218700.69      0             -218249.32      133.76734    
    218800   307.83287     -218703.06      0             -218251.56     -470.24219    
    218900   306.96477     -218708.37      0             -218258.14      184.279      
    219000   303.23131     -218707.1       0             -218262.35     -462.75975    
    219100   304.66157     -218707.71      0             -218260.86      333.80214    
    219200   306.32227     -218706.92      0             -218257.63      756.56019    
    219300   306.95655     -218704.89      0             -218254.67     -489.35002    
    219400   307.08319     -218699.98      0             -218249.58      270.24212    
    219500   306.30675     -218697.49      0             -218248.23     -348.2505     
    219600   305.14688     -218703.61      0             -218256.04     -877.26112    
    219700   302.81172     -218704.94      0             -218260.8      -1091.2709    
    219800   304.5762      -218707.45      0             -218260.73     -1777.857     
    219900   306.50603     -218705.34      0             -218255.78     -1529.5057    
    220000   306.97747     -218698.67      0             -218248.42     -1260.3567    
    220100   304.24625     -218695.41      0             -218249.17     -316.10405    
    220200   303.49613     -218704.65      0             -218259.51     -1210.8335    
    220300   303.7436      -218707.2       0             -218261.69     -344.50618    
    220400   306.96638     -218709.16      0             -218258.93      850.26679    
    220500   307.16468     -218705.7       0             -218255.18      1218.5003    
    220600   307.74703     -218704.71      0             -218253.34     -173.12591    
    220700   303.10302     -218704.25      0             -218259.69     -108.21383    
    220800   303.67102     -218711.05      0             -218265.65      808.5104     
    220900   299.92479     -218704.79      0             -218264.89      440.11181    
    221000   304.36882     -218707.21      0             -218260.79     -350.87679    
    221100   307.08056     -218708.37      0             -218257.97     -760.25914    
    221200   306.73544     -218706.72      0             -218256.83     -398.08908    
    221300   309.18224     -218710.09      0             -218256.61     -621.97884    
    221400   305.7668      -218704.29      0             -218255.82     -886.84199    
    221500   304.92036     -218702.14      0             -218254.91     -473.66345    
    221600   302.51147     -218701.15      0             -218257.45     -185.61551    
    221700   301.57527     -218705.4       0             -218263.07      184.51868    
    221800   304.91651     -218712.69      0             -218265.46     -67.507265    
    221900   304.10449     -218706.95      0             -218260.91     -499.72921    
    222000   308.52929     -218705.17      0             -218252.65     -216.11336    
    222100   309.37799     -218706.89      0             -218253.12      613.63553    
    222200   303.03379     -218703.65      0             -218259.18     -1231.3689    
    222300   302.28053     -218705.98      0             -218262.62     -1150.69      
    222400   304.44938     -218707.71      0             -218261.16     -533.13911    
    222500   306.56101     -218709.38      0             -218259.74      185.99024    
    222600   304.96841     -218705.43      0             -218258.13      312.97066    
    222700   308.11639     -218709.29      0             -218257.37     -839.3733     
    222800   305.31003     -218706.13      0             -218258.32     -715.80673    
    222900   304.51503     -218704.7       0             -218258.06     -188.41275    
    223000   305.19501     -218706.74      0             -218259.11     -429.90449    
    223100   301.6967      -218710.37      0             -218267.87      422.87389    
    223200   304.25088     -218712.88      0             -218266.63      821.14024    
    223300   304.05549     -218705.38      0             -218259.42      863.71161    
    223400   305.01846     -218702.43      0             -218255.05      883.52735    
    223500   305.48526     -218703.06      0             -218255         667.82737    
    223600   302.84519     -218705.98      0             -218261.79     -745.11008    
    223700   303.81475     -218712.11      0             -218266.5      -1010.5585    
    223800   305.27317     -218711.85      0             -218264.1      -653.79415    
    223900   303.68085     -218706.33      0             -218260.92     -280.00943    
    224000   303.75144     -218702.7       0             -218257.18     -345.28473    
    224100   305.07747     -218700.77      0             -218253.3      -1113.7344    
    224200   305.4331      -218701.55      0             -218253.56     -543.12314    
    224300   305.11488     -218710.63      0             -218263.12     -695.35926    
    224400   301.38931     -218707.17      0             -218265.11     -835.85598    
    224500   304.64891     -218707.02      0             -218260.19      357.17185    
    224600   304.04584     -218701.36      0             -218255.41     -221.93321    
    224700   306.04175     -218704.9       0             -218256.03      351.80276    
    224800   301.38908     -218704.15      0             -218262.09     -38.184446    
    224900   302.56504     -218714.31      0             -218270.54     -288.19567    
    225000   304.62139     -218714.44      0             -218267.64      1.0419459    
    225100   303.34489     -218706.44      0             -218261.52      491.14758    
    225200   305.29258     -218705.26      0             -218257.48      366.13355    
    225300   306.21569     -218704.52      0             -218255.39      393.45935    
    225400   309.6036      -218712.15      0             -218258.05      527.32192    
    225500   307.32877     -218717.16      0             -218266.4      -85.838848    
    225600   302.26805     -218710.89      0             -218267.55     -272.27127    
    225700   300.07292     -218701.17      0             -218261.04     -921.61453    
    225800   304.80081     -218703.7       0             -218256.65     -508.05295    
    225900   306.38736     -218707.1       0             -218257.71     -575.3885     
    226000   306.08095     -218710.62      0             -218261.69     -1340.0474    
    226100   304.38858     -218711.72      0             -218265.27     -753.96407    
    226200   303.98149     -218710.3       0             -218264.45      288.26336    
    226300   304.19957     -218702.95      0             -218256.77     -443.39953    
    226400   307.1654      -218704.43      0             -218253.9      -613.92336    
    226500   310.91964     -218714.46      0             -218258.43      207.64053    
    226600   302.2062      -218707.33      0             -218264.08      243.10147    
    226700   303.62477     -218708.34      0             -218263.01      330.59973    
    226800   300.07168     -218701.49      0             -218261.37     -611.26055    
    226900   306.24143     -218707.26      0             -218258.09     -508.8215     
    227000   304.94676     -218704.99      0             -218257.72     -1108.0369    
    227100   304.08342     -218704.02      0             -218258.01     -967.5825     
    227200   305.7181      -218709.33      0             -218260.93     -37.124208    
    227300   300.51862     -218704.52      0             -218263.75      121.59323    
    227400   304.7463      -218711.9       0             -218264.92     -374.86123    
    227500   305.31418     -218707.85      0             -218260.04     -167.11481    
    227600   305.67764     -218703.28      0             -218254.93     -179.74075    
    227700   307.2938      -218705.87      0             -218255.16      513.66045    
    227800   299.35939     -218704.19      0             -218265.12      275.65142    
    227900   300.47735     -218707.36      0             -218266.65      781.68753    
    228000   304.72279     -218709.27      0             -218262.33      116.92862    
    228100   308.0779      -218708.8       0             -218256.94      355.29791    
    228200   311.21365     -218713.07      0             -218256.61     -229.66318    
    228300   302.15971     -218702.84      0             -218259.66     -651.65335    
    228400   301.85605     -218712.2       0             -218269.47     -61.999307    
    228500   301.72571     -218714.34      0             -218271.79     -480.32869    
    228600   302.88061     -218709.77      0             -218265.53     -348.15976    
    228700   303.85414     -218705.97      0             -218260.3      -1025.8888    
    228800   303.58544     -218701.62      0             -218256.35     -307.12592    
    228900   306.73813     -218706.47      0             -218256.58      173.97698    
    229000   305.60288     -218711.3       0             -218263.06     -513.72056    
    229100   303.83503     -218715.65      0             -218270.01     -1212.512     
    229200   303.36498     -218712.03      0             -218267.08     -186.87057    
    229300   304.45969     -218708.49      0             -218261.93      34.853357    
    229400   305.0386      -218706.54      0             -218259.13     -980.94102    
    229500   301.97498     -218701.63      0             -218258.72      720.38456    
    229600   304.47348     -218706.6       0             -218260.03     -221.42827    
    229700   302.12488     -218707.93      0             -218264.8      -905.0182     
    229800   299.85326     -218707.81      0             -218268.01      191.99805    
    229900   299.10752     -218702.32      0             -218263.62     -1075.0963    
    230000   306.49261     -218706.14      0             -218256.6      -1538.4621    
    230100   308.07195     -218707.44      0             -218255.59     -759.17233    
    230200   307.13373     -218709.11      0             -218258.63     -508.31036    
    230300   302.94928     -218706.09      0             -218261.75     -619.08486    
    230400   301.52284     -218709.32      0             -218267.07      85.469322    
    230500   300.06572     -218714.67      0             -218274.56     -219.10068    
    230600   304.13259     -218714.32      0             -218268.24     -955.30047    
    230700   299.50175     -218701.3       0             -218262.01     -92.13009     
    230800   304.87919     -218704.99      0             -218257.82      758.53121    
    230900   304.86612     -218703.71      0             -218256.56      849.43021    
    231000   305.05552     -218706.22      0             -218258.79     -767.30528    
    231100   298.7797      -218704.71      0             -218266.48     -777.2778     
    231200   300.2599      -218708.28      0             -218267.88     -1241.7752    
    231300   304.56698     -218707.79      0             -218261.08     -1483.3664    
    231400   306.90654     -218707.73      0             -218257.59     -1148.791     
    231500   306.53373     -218707.67      0             -218258.07      79.929092    
    231600   307.63102     -218711.36      0             -218260.16     -279.43031    
    231700   303.0546      -218706.33      0             -218261.83      136.36585    
    231800   306.40207     -218713.85      0             -218264.45      384.14543    
    231900   300.65482     -218707.35      0             -218266.37     -993.45158    
    232000   304.11897     -218708.27      0             -218262.21     -906.1632     
    232100   307.36758     -218706.18      0             -218255.36     -93.085088    
    232200   307.30785     -218705.88      0             -218255.15      706.72346    
    232300   302.74815     -218703.09      0             -218259.05     -251.08438    
    232400   305.66244     -218710.58      0             -218262.26      187.05513    
    232500   306.99127     -218712.95      0             -218262.68      1591.9501    
    232600   304.79739     -218708.87      0             -218261.82     -257.17161    
    232700   305.82395     -218707.54      0             -218258.99     -276.63256    
    232800   306.75745     -218704.82      0             -218254.89      735.28466    
    232900   309.24014     -218705.16      0             -218251.59     -358.80682    
    233000   306.69186     -218706.4       0             -218256.57     -645.42667    
    233100   303.2498      -218709.06      0             -218264.28     -1419.2647    
    233200   304.51644     -218712.21      0             -218265.57     -971.39988    
    233300   302.53531     -218704.12      0             -218260.39     -349.48974    
    233400   307.70367     -218707.27      0             -218255.96      1293.7524    
    233500   304.36838     -218703.96      0             -218257.54      1272.3007    
    233600   305.49717     -218708.12      0             -218260.04      414.74088    
    233700   302.61472     -218707.61      0             -218263.76     -237.58243    
    233800   302.35855     -218711.02      0             -218267.54      199.29027    
    233900   301.00213     -218714.17      0             -218272.69     -1124.6127    
    234000   302.15274     -218713.34      0             -218270.17     -1571.0808    
    234100   305.1414      -218709.29      0             -218261.73      179.21531    
    234200   306.78248     -218707.84      0             -218257.88     -799.97598    
    234300   306.74069     -218708.77      0             -218258.86     -892.7167     
    234400   304.63388     -218710.05      0             -218263.24     -1216.4498    
    234500   302.73167     -218714.24      0             -218270.22      166.10404    
    234600   303.78893     -218713.98      0             -218268.41      39.303858    
    234700   302.1567      -218704.82      0             -218261.65     -696.13885    
    234800   305.42071     -218707.76      0             -218259.8      -862.55118    
    234900   307.91122     -218712.13      0             -218260.51     -361.23622    
    235000   306.19692     -218711.98      0             -218262.88     -426.88016    
    235100   305.05661     -218712.17      0             -218264.74      1096.4137    
    235200   306.68048     -218714.42      0             -218264.61      15.055496    
    235300   307.19421     -218711.71      0             -218261.14     -708.10109    
    235400   310.06946     -218712.03      0             -218257.25     -712.68686    
    235500   308.70906     -218708.97      0             -218256.18      649.54184    
    235600   305.39726     -218712.71      0             -218264.78      454.38014    
    235700   303.12776     -218711.48      0             -218266.87      130.83545    
    235800   304.01191     -218710.57      0             -218264.67     -961.80484    
    235900   309.18565     -218713.16      0             -218259.68     -415.39018    
    236000   308.90182     -218705.16      0             -218252.09     -557.12904    
    236100   307.41388     -218700.76      0             -218249.87     -906.05767    
    236200   304.41413     -218708.07      0             -218261.58     -851.81594    
    236300   303.93198     -218711.09      0             -218265.3      -860.55669    
    236400   300.61842     -218708.56      0             -218267.63     -824.82298    
    236500   303.2365      -218710.67      0             -218265.91     -234.72502    
    236600   304.50991     -218706.59      0             -218259.96     -1453.2176    
    236700   305.17229     -218702.36      0             -218254.76     -664.93084    
    236800   308.5826      -218709.96      0             -218257.36     -278.62979    
    236900   304.23725     -218711.12      0             -218264.89     -170.74154    
    237000   303.15291     -218709.85      0             -218265.21      1356.8082    
    237100   305.75836     -218710.92      0             -218262.46      548.61632    
    237200   303.12975     -218704.53      0             -218259.93     -634.16473    
    237300   306.6234      -218706.94      0             -218257.21      89.481928    
    237400   303.92585     -218703.22      0             -218257.44     -904.19382    
    237500   305.01478     -218710.93      0             -218263.56     -613.14022    
    237600   302.92293     -218713.55      0             -218269.25     -207.12092    
    237700   307.44089     -218718.42      0             -218267.5      -1520.615     
    237800   304.52069     -218708.59      0             -218261.94      667.97424    
    237900   307.40741     -218708.86      0             -218257.98      1061.3062    
    238000   307.01284     -218708.83      0             -218258.53      716.38783    
    238100   307.74936     -218712.94      0             -218261.56      1471.2776    
    238200   303.59627     -218710.98      0             -218265.7       20.6523      
    238300   304.84275     -218713.02      0             -218265.9      -693.46012    
    238400   305.27032     -218710.78      0             -218263.04     -562.78645    
    238500   308.65586     -218708.76      0             -218256.05      395.8218     
    238600   304.05485     -218703.83      0             -218257.86     -24.344768    
    238700   303.2743      -218709.69      0             -218264.87     -182.6817     
    238800   302.25535     -218709.56      0             -218266.24     -26.997598    
    238900   305.4874      -218712.94      0             -218264.88      4.6345754    
    239000   308.49337     -218714.93      0             -218262.46     -1424.696     
    239100   304.06434     -218705.59      0             -218259.62     -926.09842    
    239200   307.24056     -218702.89      0             -218252.25     -841.14472    
    239300   310.11447     -218707.04      0             -218252.19     -182.88808    
    239400   307.11699     -218711.58      0             -218261.12      135.07405    
    239500   302.15836     -218707.74      0             -218264.56     -889.99489    
    239600   303.08783     -218710.59      0             -218266.05      130.53377    
    239700   303.40759     -218709.91      0             -218264.89     -943.00993    
    239800   305.86143     -218707.56      0             -218258.95      426.3359     
    239900   306.22565     -218703.04      0             -218253.89     -731.181      
    240000   304.97837     -218704.92      0             -218257.61     -681.17621    
    240100   304.55765     -218712.26      0             -218265.56     -1013.5074    
    240200   303.27861     -218711.19      0             -218266.36      69.006366    
    240300   304.71433     -218710.22      0             -218263.3      -565.75443    
    240400   311.37041     -218714.24      0             -218257.55     -340.61179    
    240500   304.50072     -218705.71      0             -218259.09     -862.64675    
    240600   302.17666     -218712.12      0             -218268.91      417.08815    
    240700   304.43112     -218717.46      0             -218270.95     -1025.5626    
    240800   305.37693     -218714.52      0             -218266.62     -988.10949    
    240900   306.15419     -218711         0             -218261.96     -50.592769    
    241000   305.20165     -218708.63      0             -218260.99     -808.08072    
    241100   306.24488     -218711.63      0             -218262.46     -702.35916    
    241200   301.83985     -218708.11      0             -218265.4      -45.05756     
    241300   301.65021     -218718.58      0             -218276.15     -760.48569    
    241400   301.28267     -218716.6       0             -218274.7      -1675.3081    
    241500   306.03124     -218715.57      0             -218266.71     -1272.4195    
    241600   304.98346     -218709.69      0             -218262.36     -440.18024    
    241700   305.71612     -218709.31      0             -218260.91     -489.29762    
    241800   305.26497     -218709.78      0             -218262.05     -591.68912    
    241900   302.45193     -218713.08      0             -218269.47     -689.78213    
    242000   301.80167     -218714.7       0             -218272.04     -526.33957    
    242100   306.68958     -218715.95      0             -218266.13      178.25655    
    242200   303.83951     -218708.42      0             -218262.77      131.95989    
    242300   303.73243     -218707.79      0             -218262.3      -644.62202    
    242400   306.11309     -218710.8       0             -218261.82     -434.77253    
    242500   303.07942     -218708.58      0             -218264.05     -844.13961    
    242600   305.72559     -218718.2       0             -218269.79     -719.97292    
    242700   301.30859     -218714.01      0             -218272.07     -677.33964    
    242800   304.07866     -218711.56      0             -218265.56     -495.67093    
    242900   304.11468     -218706.02      0             -218259.97     -60.607978    
    243000   306.41509     -218708.93      0             -218259.5      -878.03869    
    243100   304.02366     -218706.81      0             -218260.89     -311.57101    
    243200   301.50599     -218712.03      0             -218269.81     -135.91292    
    243300   300.75469     -218713.25      0             -218272.13     -289.63056    
    243400   302.20858     -218710.61      0             -218267.35     -494.36131    
    243500   307.49082     -218714.74      0             -218263.74      18.778899    
    243600   304.77084     -218709.58      0             -218262.57      328.42665    
    243700   305.00622     -218710.07      0             -218262.71      187.37838    
    243800   305.25755     -218715.47      0             -218267.74     -162.95907    
    243900   301.40312     -218714.62      0             -218272.55     -189.70456    
    244000   300.34448     -218708.68      0             -218268.16     -750.54847    
    244100   306.45515     -218710.34      0             -218260.86     -982.2012     
    244200   304.10114     -218706.12      0             -218260.09     -119.60134    
    244300   305.36412     -218709.8       0             -218261.92     -524.30697    
    244400   304.73353     -218715.25      0             -218268.3      -830.63528    
    244500   302.22657     -218717.47      0             -218274.19     -503.8647     
    244600   305.58126     -218716.26      0             -218268.06     -69.014894    
    244700   305.212       -218708.32      0             -218260.66      457.59855    
    244800   306.45144     -218710.71      0             -218261.23      688.29729    
    244900   305.86639     -218713.08      0             -218264.46     -248.32367    
    245000   304.07389     -218715.2       0             -218269.21     -197.13365    
    245100   303.73451     -218714.39      0             -218268.9       209.80504    
    245200   310.10054     -218713.82      0             -218258.99     -1144.2329    
    245300   307.23696     -218707.67      0             -218257.04     -15.676808    
    245400   302.97756     -218705.5       0             -218261.12     -523.47371    
    245500   299.48825     -218705.04      0             -218265.77     -440.91924    
    245600   304.62286     -218714.21      0             -218267.41     -386.17612    
    245700   309.02895     -218717.22      0             -218263.96     -344.00062    
    245800   307.22875     -218706.81      0             -218256.19     -627.87123    
    245900   307.80326     -218707.43      0             -218255.97     -387.8792     
    246000   306.58986     -218712.82      0             -218263.14     -322.41993    
    246100   304.90793     -218714.87      0             -218267.66     -672.90032    
    246200   304.84377     -218714.24      0             -218267.12     -772.59701    
    246300   307.58797     -218713.46      0             -218262.32     -1235.3051    
    246400   306.00393     -218704.58      0             -218255.76     -462.51374    
    246500   310.21927     -218702.6       0             -218247.6      -121.29489    
    246600   308.0647      -218707.24      0             -218255.39      322.55631    
    246700   305.35631     -218710.48      0             -218262.61     -1075.3768    
    246800   303.23199     -218711.07      0             -218266.32     -472.49465    
    246900   302.73922     -218710.99      0             -218266.96     -147.02904    
    247000   303.13786     -218707.16      0             -218262.54      272.32143    
    247100   304.69863     -218703.59      0             -218256.68     -269.9024     
    247200   306.39126     -218708.13      0             -218258.74     -345.8143     
    247300   302.38921     -218709.57      0             -218266.05      386.31438    
    247400   306.02411     -218715.44      0             -218266.59      373.21017    
    247500   305.00874     -218710.39      0             -218263.03      83.541172    
    247600   305.02377     -218707.86      0             -218260.48     -401.09079    
    247700   306.0013      -218709.79      0             -218260.97     -431.95883    
    247800   308.51964     -218719         0             -218266.49     -208.48333    
    247900   303.33918     -218715.82      0             -218270.91      336.40201    
    248000   302.29363     -218710.27      0             -218266.9      -104.39566    
    248100   306.67051     -218709.07      0             -218259.27     -1570.9745    
    248200   308.00535     -218710.09      0             -218258.34      131.06667    
    248300   304.85263     -218707.95      0             -218260.82     -1370.7888    
    248400   301.86569     -218707.36      0             -218264.61     -1193.8072    
    248500   305.52824     -218718.08      0             -218269.96     -105.81217    
    248600   300.43967     -218717.64      0             -218276.98      44.176626    
    248700   303.48986     -218718.24      0             -218273.11     -355.59162    
    248800   304.15308     -218710.35      0             -218264.24     -398.08624    
    248900   304.99779     -218708.53      0             -218261.18     -377.16687    
    249000   304.2721      -218706.92      0             -218260.64     -271.53631    
    249100   305.02605     -218709.61      0             -218262.23     -238.53796    
    249200   305.3539      -218714.33      0             -218266.46      536.9369     
    249300   304.65066     -218718.3       0             -218271.47     -268.831      
    249400   304.75026     -218715.91      0             -218268.93     -836.07932    
    249500   306.1388      -218708.72      0             -218259.7      -816.05989    
    249600   306.50713     -218708.56      0             -218259        -665.72108    
    249700   308.06429     -218714.19      0             -218262.34      388.88729    
    249800   302.61379     -218712.12      0             -218268.28      267.2317     
    249900   303.64127     -218714.23      0             -218268.87     -1518.9583    
    250000   303.32911     -218706.54      0             -218261.64     -411.89671    
    250100   305.316       -218704.83      0             -218257.02      1402.7955    
    250200   305.62284     -218707.29      0             -218259.03      52.685781    
    250300   303.32287     -218708.49      0             -218263.61      655.15987    
    250400   302.87386     -218712.19      0             -218267.96      311.06096    
    250500   304.93543     -218714.23      0             -218266.97      49.408158    
    250600   305.22407     -218706.91      0             -218259.24     -347.2276     
    250700   308.67416     -218707.1       0             -218254.37     -695.28574    
    250800   305.32191     -218704.95      0             -218257.13     -715.70435    
    250900   305.61395     -218709.38      0             -218261.13      490.59993    
    251000   305.54576     -218710.81      0             -218262.66     -529.28615    
    251100   304.46539     -218710.84      0             -218264.28     -460.6656     
    251200   304.61861     -218712.24      0             -218265.45     -1137.9397    
    251300   304.17505     -218713.88      0             -218267.74     -1679.4985    
    251400   302.98519     -218711.1       0             -218266.71     -44.235346    
    251500   308.74417     -218713.78      0             -218260.94      786.39886    
    251600   307.39137     -218710.21      0             -218259.36     -305.65959    
    251700   300.02057     -218702.55      0             -218262.51     -442.2205     
    251800   300.1478      -218711.43      0             -218271.2       1319.8993    
    251900   301.17992     -218713.78      0             -218272.04     -131.85864    
    252000   301.80621     -218709.13      0             -218266.47     -1156.6651    
    252100   303.42457     -218707.3       0             -218262.26     -1392.4219    
    252200   305.50647     -218710.22      0             -218262.13     -764.59657    
    252300   304.52718     -218711.2       0             -218264.55     -381.64862    
    252400   302.51912     -218714.37      0             -218270.66      177.32188    
    252500   300.13132     -218715.46      0             -218275.25      573.18874    
    252600   304.12434     -218715.63      0             -218269.57     -523.52923    
    252700   306.64202     -218711.09      0             -218261.33     -699.51822    
    252800   304.73985     -218707.13      0             -218260.17      41.616867    
    252900   306.52174     -218712.95      0             -218263.37     -619.09372    
    253000   304.0609      -218714.79      0             -218268.82     -370.00263    
    253100   306.406       -218720.26      0             -218270.85      302.02567    
    253200   304.87844     -218709.76      0             -218262.59     -672.00532    
    253300   306.65458     -218707.44      0             -218257.67      574.58039    
    253400   307.55138     -218711.65      0             -218260.56     -1357.3851    
    253500   303.79254     -218712.31      0             -218266.73     -377.4918     
    253600   307.38313     -218718.01      0             -218267.17     -731.97518    
    253700   303.51084     -218711.12      0             -218265.96     -715.67486    
    253800   304.41832     -218710.89      0             -218264.4      -645.93351    
    253900   307.51882     -218714.65      0             -218263.61     -519.4936     
    254000   305.04806     -218711.07      0             -218263.65     -54.021421    
    254100   305.82565     -218714.27      0             -218265.71     -382.62004    
    254200   303.77378     -218714.58      0             -218269.03      498.99197    
    254300   304.0032      -218716.82      0             -218270.94      222.29729    
    254400   302.72252     -218711.31      0             -218267.3      -238.76394    
    254500   301.59651     -218703.23      0             -218260.87     -1020.1162    
    254600   308.82924     -218710.63      0             -218257.67      35.710696    
    254700   304.26317     -218708.18      0             -218261.91      343.69921    
    254800   300.85785     -218711.03      0             -218269.75     -719.49934    
    254900   304.02718     -218715.83      0             -218269.91     -814.9569     
    255000   301.00749     -218707.78      0             -218266.29     -671.91774    
    255100   306.04019     -218710.7       0             -218261.83     -677.22241    
    255200   304.92609     -218706.68      0             -218259.44     -1258.7406    
    255300   307.05619     -218708.09      0             -218257.72     -677.25015    
    255400   305.42165     -218711.23      0             -218263.26     -1559.4287    
    255500   300.89738     -218710.22      0             -218268.89     -1163.6243    
    255600   303.21471     -218713.22      0             -218268.49     -44.973337    
    255700   306.10756     -218710.59      0             -218261.62      348.00335    
    255800   304.95685     -218706.79      0             -218259.51      1088.2389    
    255900   305.53601     -218709.32      0             -218261.19      379.93617    
    256000   303.74911     -218709.03      0             -218263.52     -132.8003     
    256100   306.95261     -218714.17      0             -218263.96     -1078.7033    
    256200   302.50259     -218709.55      0             -218265.87     -931.67332    
    256300   305.33804     -218716.75      0             -218268.9      -451.20272    
    256400   305.06879     -218717.86      0             -218270.41     -734.62543    
    256500   305.53035     -218712.28      0             -218264.16     -1404.331     
    256600   307.76449     -218709.87      0             -218258.46     -431.92775    
    256700   306.73355     -218711.4       0             -218261.51     -573.3573     
    256800   304.78923     -218713.3       0             -218266.26     -497.22567    
    256900   303.67025     -218714.08      0             -218268.69      698.55777    
    257000   304.35361     -218711.77      0             -218265.37     -292.82198    
    257100   308.47487     -218708.12      0             -218255.67      47.030801    
    257200   307.01986     -218708.53      0             -218258.22     -560.37635    
    257300   306.61247     -218715.08      0             -218265.36     -411.61826    
    257400   304.01381     -218714.66      0             -218268.76     -671.64298    
    257500   307.5253      -218717.63      0             -218266.58     -288.37516    
    257600   305.0248      -218709.28      0             -218261.89     -357.87354    
    257700   308.75584     -218706.36      0             -218253.5      -949.37776    
    257800   305.94219     -218702.37      0             -218253.64     -1351.4204    
    257900   304.42165     -218709         0             -218262.5      -895.77729    
    258000   305.75759     -218713.26      0             -218264.8      -475.03339    
    258100   305.93224     -218714.56      0             -218265.85     -789.34094    
    258200   304.42009     -218713.49      0             -218266.99     -915.90325    
    258300   302.2991      -218710         0             -218266.62      38.255581    
    258400   307.44624     -218713.8       0             -218262.87      192.4381     
    258500   310.32111     -218713.7       0             -218258.55     -234.94551    
    258600   306.60684     -218710.78      0             -218261.08      4.2204816    
    258700   303.25688     -218714.02      0             -218269.23      509.06107    
    258800   301.93576     -218714.89      0             -218272.03     -249.15691    
    258900   303.37844     -218713.74      0             -218268.77     -417.26307    
    259000   303.95712     -218709.26      0             -218263.44     -963.5528     
    259100   306.00443     -218711.22      0             -218262.4      -1404.4941    
    259200   302.22013     -218706.01      0             -218262.74     -1227.3788    
    259300   302.7323      -218708.9       0             -218264.88     -321.83151    
    259400   303.28207     -218716.07      0             -218271.25     -723.43083    
    259500   299.55277     -218715.97      0             -218276.61      170.6355     
    259600   300.64575     -218712.85      0             -218271.89      682.45536    
    259700   303.38464     -218711.77      0             -218266.79      390.6138     
    259800   304.44517     -218711.92      0             -218265.38      340.54932    
    259900   307.24125     -218716.15      0             -218265.51      1313.0424    
    260000   304.78291     -218718.01      0             -218270.98     -40.042215    
    260100   301.21511     -218718.67      0             -218276.88     -183.45861    
    260200   303.9823      -218718.85      0             -218272.99      310.30814    
    260300   307.81451     -218719.14      0             -218267.66      41.828775    
    260400   305.95903     -218714.97      0             -218266.22     -839.58948    
    260500   304.52946     -218713.64      0             -218266.98     -701.69668    
    260600   305.45461     -218714.34      0             -218266.33     -946.02705    
    260700   304.68698     -218709.75      0             -218262.86     -446.80839    
    260800   305.58779     -218707.83      0             -218259.62     -62.648988    
    260900   307.79892     -218712.44      0             -218260.98     -561.3677     
    261000   304.89603     -218716.49      0             -218269.3      -951.10391    
    261100   302.11282     -218715.75      0             -218272.64      475.88732    
    261200   304.80298     -218716.95      0             -218269.89      660.76118    
    261300   306.26423     -218713.61      0             -218264.41     -55.573895    
    261400   307.02704     -218711.2       0             -218260.87     -372.59943    
    261500   308.95601     -218712.12      0             -218258.97     -405.46226    
    261600   305.46692     -218710.3       0             -218262.26     -371.0287     
    261700   305.07745     -218716.56      0             -218269.1       113.02571    
    261800   304.97755     -218718.57      0             -218271.26      300.6839     
    261900   303.75932     -218714.97      0             -218269.44     -380.5816     
    262000   307.33195     -218712.81      0             -218262.04     -318.93118    
    262100   304.02767     -218705.06      0             -218259.14     -338.43476    
    262200   304.85307     -218709.39      0             -218262.26      297.85594    
    262300   307.01584     -218715.66      0             -218265.35      277.66257    
    262400   306.32633     -218716.63      0             -218267.34     -651.81493    
    262500   305.17162     -218714.87      0             -218267.27     -1081.2702    
    262600   304.81329     -218712.84      0             -218265.76     -717.12172    
    262700   305.46943     -218710.6       0             -218262.56     -671.4545     
    262800   304.43558     -218707.03      0             -218260.51      814.07705    
    262900   306.48192     -218711.34      0             -218261.82      84.965157    
    263000   306.58254     -218719.53      0             -218269.86     -281.85535    
    263100   300.40608     -218712.23      0             -218271.62      349.39063    
    263200   304.46315     -218715.16      0             -218268.6       476.81786    
    263300   306.4808      -218711.47      0             -218261.95     -255.78215    
    263400   307.55307     -218704.93      0             -218253.83     -23.290731    
    263500   309.42328     -218710.3       0             -218256.46     -51.624371    
    263600   306.07179     -218709.51      0             -218260.59      720.62617    
    263700   307.68807     -218717.53      0             -218266.23     -657.60751    
    263800   303.97887     -218716.69      0             -218270.84     -187.0583     
    263900   303.23006     -218716.11      0             -218271.36      289.26779    
    264000   303.47838     -218709.71      0             -218264.6      -66.832198    
    264100   308.95741     -218710.44      0             -218257.29     -504.432      
    264200   306.6372      -218708.94      0             -218259.19     -674.9628     
    264300   304.20641     -218711.43      0             -218265.24     -709.92793    
    264400   303.88741     -218713.07      0             -218267.35     -1586.8421    
    264500   306.06451     -218716.67      0             -218267.76     -1666.8307    
    264600   305.49641     -218712.78      0             -218264.7      -1604.3179    
    264700   306.7255      -218707.05      0             -218257.17      517.71965    
    264800   306.46804     -218705.37      0             -218255.87     -306.98373    
    264900   305.1073      -218711.46      0             -218263.96     -364.43755    
    265000   302.8992      -218711.49      0             -218267.23     -260.71076    
    265100   304.77341     -218715.71      0             -218268.7      -548.45547    
    265200   303.3886      -218714.35      0             -218269.36     -265.50032    
    265300   302.89398     -218713.21      0             -218268.95      213.43855    
    265400   305.9129      -218712.74      0             -218264.05     -868.6634     
    265500   307.29539     -218710.4       0             -218259.69      438.37456    
    265600   307.54246     -218713.12      0             -218262.04      433.56204    
    265700   304.04119     -218716.58      0             -218270.64     -1031.3476    
    265800   304.79951     -218719.35      0             -218272.29     -1342.3127    
    265900   305.8297      -218718.27      0             -218269.71     -1078.5902    
    266000   305.0802      -218712.84      0             -218265.38     -922.07373    
    266100   306.59369     -218713.99      0             -218264.3      -435.45815    
    266200   308.95669     -218718.08      0             -218264.93     -271.90758    
    266300   303.48306     -218711.58      0             -218266.45     -173.41506    
    266400   304.69884     -218714.39      0             -218267.48      51.624579    
    266500   304.93723     -218717.95      0             -218270.7      -1001.9613    
    266600   302.17023     -218719.33      0             -218276.14     -1425.2334    
    266700   300.07434     -218714.82      0             -218274.69     -652.81187    
    266800   306.45658     -218715.52      0             -218266.04     -446.84763    
    266900   307.09405     -218714         0             -218263.58      9.3096045    
    267000   305.37843     -218712.66      0             -218264.75     -233.46516    
    267100   304.00646     -218715.19      0             -218269.3      -1222.9045    
    267200   301.95607     -218720.42      0             -218277.53     -1521.3693    
    267300   300.53516     -218717.21      0             -218276.41     -224.453      
    267400   307.29902     -218722.01      0             -218271.29      320.76385    
    267500   304.85202     -218716.37      0             -218269.24     -22.835999    
    267600   307.28234     -218715         0             -218264.3      -888.28161    
    267700   307.95828     -218712.9       0             -218261.21     -1272.4256    
    267800   305.40501     -218712.41      0             -218264.47     -797.02573    
    267900   302.59933     -218717.36      0             -218273.53     -1053.225     
    268000   298.22723     -218711.4       0             -218273.98     -309.12277    
    268100   302.53521     -218712.59      0             -218268.86     -790.80232    
    268200   306.44192     -218714.87      0             -218265.41      49.326675    
    268300   306.4969      -218714.98      0             -218265.43     -700.26911    
    268400   307.23666     -218716.29      0             -218265.66      40.593502    
    268500   305.58333     -218715.16      0             -218266.95     -692.25174    
    268600   300.18691     -218714.93      0             -218274.64     -424.39634    
    268700   304.15091     -218724.04      0             -218277.94      683.92357    
    268800   303.8913      -218717.01      0             -218271.28     -625.23527    
    268900   303.91592     -218712.81      0             -218267.06     -431.10038    
    269000   303.28585     -218708.91      0             -218264.07     -370.16952    
    269100   306.18784     -218713.45      0             -218264.36     -696.41533    
    269200   299.75995     -218710.83      0             -218271.17      204.19784    
    269300   298.04054     -218713.35      0             -218276.21     -377.3237     
    269400   303.66184     -218718.02      0             -218272.63     -403.5562     
    269500   305.22931     -218715.71      0             -218268.03      375.31612    
    269600   304.42713     -218713.77      0             -218267.26     -946.69854    
    269700   303.17494     -218709.95      0             -218265.28     -1790.8761    
    269800   307.80073     -218712.97      0             -218261.51     -826.78802    
    269900   304.05646     -218706.79      0             -218260.82      80.925492    
    270000   303.65576     -218712.36      0             -218266.99     -307.29559    
    270100   301.73961     -218715.56      0             -218273        -714.87345    
    270200   299.16954     -218711.77      0             -218272.97     -148.45692    
    270300   305.70424     -218714.12      0             -218265.74     -783.08776    
    270400   306.42831     -218711.36      0             -218261.92     -890.86659    
    270500   303.08328     -218707.22      0             -218262.68     -151.86436    
    270600   304.77743     -218712         0             -218264.98     -200.33856    
    270700   303.89911     -218715.28      0             -218269.55     -672.47423    
    270800   302.62966     -218717.28      0             -218273.41     -800.20973    
    270900   305.35205     -218720.53      0             -218272.66     -964.8933     
    271000   306.42017     -218713.39      0             -218263.96     -436.17381    
    271100   307.5173      -218712.48      0             -218261.44     -707.76253    
    271200   306.7292      -218713.37      0             -218263.49     -451.63646    
    271300   301.56746     -218713.12      0             -218270.8      -648.32474    
    271400   304.10657     -218718.85      0             -218272.81     -893.11079    
    271500   303.70295     -218715.58      0             -218270.14      540.48772    
    271600   303.77196     -218712.02      0             -218266.47      566.12131    
    271700   302.26402     -218708.73      0             -218265.39      1011.5664    
    271800   305.20281     -218713.44      0             -218265.8       540.11239    
    271900   305.69957     -218716.37      0             -218268        -200.14172    
    272000   307.11112     -218721.95      0             -218271.51      701.36361    
    272100   304.04564     -218720.22      0             -218274.27      139.10045    
    272200   301.39462     -218715.28      0             -218273.22      355.33269    
    272300   306.14362     -218713.88      0             -218264.86     -908.33443    
    272400   307.04793     -218712.64      0             -218262.29      494.56831    
    272500   303.44428     -218709.59      0             -218264.53      233.90836    
    272600   303.85258     -218716.79      0             -218271.12     -356.49413    
    272700   299.12664     -218715.68      0             -218276.95     -367.07845    
    272800   301.12495     -218715.62      0             -218273.95     -308.38043    
    272900   304.64993     -218716.59      0             -218269.75      478.17618    
    273000   308.52231     -218718.41      0             -218265.89      655.38406    
    273100   304.64222     -218710.73      0             -218263.9      -393.14368    
    273200   304.2536      -218711.88      0             -218265.63      652.29747    
    273300   302.62211     -218719.2       0             -218275.34     -929.04668    
    273400   301.71403     -218717.76      0             -218275.23     -892.2444     
    273500   304.78744     -218716.41      0             -218269.37     -401.20999    
    273600   306.76796     -218714.87      0             -218264.92     -382.94666    
    273700   304.96259     -218712.43      0             -218265.14     -146.95058    
    273800   304.76698     -218714.25      0             -218267.25     -399.67745    
    273900   303.48561     -218717.86      0             -218272.73     -379.39976    
    274000   302.24048     -218722.34      0             -218279.04     -351.5398     
    274100   303.43529     -218719         0             -218273.95     -2331.9734    
    274200   307.76012     -218719.61      0             -218268.21     -434.25667    
    274300   304.38796     -218712.41      0             -218265.96      232.08291    
    274400   304.65015     -218709.43      0             -218262.6      -427.41377    
    274500   305.32213     -218709.38      0             -218261.56     -299.93264    
    274600   301.56175     -218710.32      0             -218268.01     -71.422586    
    274700   302.23396     -218716.79      0             -218273.5       122.2168     
    274800   304.20795     -218717.35      0             -218271.16     -229.31451    
    274900   307.2952      -218716.55      0             -218265.84     -693.03273    
    275000   303.60975     -218708.79      0             -218263.48     -120.04089    
    275100   307.17042     -218714.36      0             -218263.83     -376.14481    
    275200   303.16557     -218710.56      0             -218265.9       96.113989    
    275300   306.71674     -218717.24      0             -218267.38     -768.49637    
    275400   303.99143     -218716.59      0             -218270.72     -1059.0853    
    275500   303.83495     -218720.39      0             -218274.75     -842.20077    
    275600   302.72102     -218720.55      0             -218276.55     -900.65465    
    275700   306.35417     -218717.86      0             -218268.53     -1182.0554    
    275800   303.00026     -218708.37      0             -218263.95     -1058.5512    
    275900   307.5891      -218714.51      0             -218263.36     -1137.1059    
    276000   305.9139      -218716.11      0             -218267.43     -108.71266    
    276100   302.52653     -218718.78      0             -218275.06     -584.45681    
    276200   300.68521     -218717.81      0             -218276.79     -1202.2387    
    276300   306.6369      -218717.66      0             -218267.91     -669.81069    
    276400   307.03446     -218712.63      0             -218262.3      -1139.8155    
    276500   305.16755     -218712.35      0             -218264.75      102.96033    
    276600   301.90662     -218712.53      0             -218269.72     -449.96032    
    276700   304.46382     -218717.83      0             -218271.27     -359.04259    
    276800   305.15341     -218718.09      0             -218270.52     -1062.5692    
    276900   306.28285     -218711.83      0             -218262.6      -1150.2826    
    277000   305.24031     -218708.28      0             -218260.58     -87.573975    
    277100   306.21585     -218713.36      0             -218264.23     -658.58012    
    277200   304.58296     -218719.13      0             -218272.39     -826.85609    
    277300   302.83654     -218716.76      0             -218272.59     -641.89591    
    277400   299.55116     -218709.38      0             -218270.02      473.3462     
    277500   306.79006     -218715.45      0             -218265.48      68.853362    
    277600   303.90735     -218708.05      0             -218262.3       342.15357    
    277700   309.54097     -218714.56      0             -218260.56     -528.32486    
    277800   304.33659     -218710.28      0             -218263.9       332.45544    
    277900   302.53598     -218714.61      0             -218270.87      5.2786011    
    278000   302.96106     -218717.09      0             -218272.74     -689.58199    
    278100   303.24468     -218711.67      0             -218266.9      -765.54065    
    278200   305.21865     -218709.69      0             -218262.02     -872.53362    
    278300   307.11842     -218713.81      0             -218263.35     -937.72988    
    278400   304.31774     -218713.17      0             -218266.82     -217.26537    
    278500   303.80038     -218714.75      0             -218269.16      867.88042    
    278600   306.95351     -218720.03      0             -218269.82      680.76594    
    278700   304.96358     -218712.48      0             -218265.19      35.208423    
    278800   307.50052     -218710.59      0             -218259.58      143.52044    
    278900   307.64766     -218712.07      0             -218260.84     -830.73347    
    279000   304.83884     -218715.25      0             -218268.14     -256.48662    
    279100   302.43406     -218714.61      0             -218271.03     -164.32483    
    279200   305.07623     -218717.39      0             -218269.93     -315.18861    
    279300   306.57624     -218715.18      0             -218265.52      85.785321    
    279400   309.3137      -218714.38      0             -218260.7      -505.18296    
    279500   310.32842     -218707.49      0             -218252.33     -579.77931    
    279600   310.06672     -218708.48      0             -218253.7      -796.12064    
    279700   308.61483     -218715.36      0             -218262.71     -1293.6104    
    279800   305.41498     -218716.05      0             -218268.09     -311.3014     
    279900   307.77032     -218722.21      0             -218270.8       677.98966    
    280000   301.92286     -218712.03      0             -218269.2      -254.76759    
    280100   307.29203     -218714.49      0             -218263.78      310.04679    
    280200   307.77        -218710.58      0             -218259.17     -173.54873    
    280300   308.92185     -218716.42      0             -218263.32      11.735862    
    280400   301.12129     -218713.72      0             -218272.06      6.1754422    
    280500   303.30913     -218716.67      0             -218271.8       457.23658    
    280600   303.36388     -218712.13      0             -218267.18     -264.99708    
    280700   307.15031     -218712.24      0             -218261.74     -538.36193    
    280800   305.86834     -218711.26      0             -218262.64     -69.092578    
    280900   303.59959     -218712.64      0             -218267.34     -719.06688    
    281000   305.96314     -218719.27      0             -218270.51      459.84827    
    281100   303.7781      -218715.39      0             -218269.84      562.79574    
    281200   305.74725     -218715.64      0             -218267.19     -1001.3698    
    281300   306.17892     -218714.17      0             -218265.09     -52.861147    
    281400   306.43357     -218713.59      0             -218264.14     -498.27225    
    281500   307.37873     -218716.06      0             -218265.22     -291.07053    
    281600   302.7132      -218715.35      0             -218271.36     -672.52568    
    281700   301.28139     -218716.85      0             -218274.96      308.79592    
    281800   302.56352     -218715.9       0             -218272.13      705.54602    
    281900   307.49048     -218713.34      0             -218262.34     -638.6264     
    282000   304.31914     -218709.32      0             -218262.97     -725.56309    
    282100   305.82382     -218715.7       0             -218267.14     -810.16652    
    282200   303.45523     -218716.6       0             -218271.52     -637.08544    
    282300   303.03206     -218718.41      0             -218273.95      196.84272    
    282400   304.0176      -218715.31      0             -218269.4      -322.54642    
    282500   308.48501     -218714.33      0             -218261.87     -1257.3067    
    282600   306.1857      -218712         0             -218262.92     -1019.2296    
    282700   304.50007     -218715.97      0             -218269.35     -615.49946    
    282800   302.18981     -218716.49      0             -218273.26      201.55199    
    282900   304.62612     -218717.24      0             -218270.44      261.08646    
    283000   308.81902     -218720.23      0             -218267.28      639.80978    
    283100   306.68538     -218716.85      0             -218267.03     -364.51741    
    283200   306.20304     -218715.59      0             -218266.48      355.86547    
    283300   306.3424      -218716.35      0             -218267.04      1279.7468    
    283400   303.19604     -218715.01      0             -218270.31     -511.96822    
    283500   303.91245     -218717.01      0             -218271.26     -468.05555    
    283600   305.23109     -218716.01      0             -218268.32     -677.64721    
    283700   303.72621     -218708.44      0             -218262.96     -1023.2107    
    283800   309.52218     -218714.02      0             -218260.04     -828.86466    
    283900   306.57248     -218716.78      0             -218267.13     -83.472319    
    284000   305.18083     -218720.5       0             -218272.89      399.76064    
    284100   303.48021     -218715.69      0             -218270.57     -710.17484    
    284200   303.25674     -218709.89      0             -218265.1      -261.67549    
    284300   305.90381     -218710.95      0             -218262.27     -601.59291    
    284400   306.21644     -218714.74      0             -218265.61      391.39847    
    284500   307.29124     -218718.23      0             -218267.53      409.98683    
    284600   303.5908      -218713.45      0             -218268.17      591.31507    
    284700   304.98878     -218715.77      0             -218268.43     -453.80028    
    284800   305.02583     -218713.28      0             -218265.9       44.188123    
    284900   305.30142     -218710.33      0             -218262.54     -276.67589    
    285000   306.45745     -218710.89      0             -218261.41     -965.45861    
    285100   305.97827     -218716.38      0             -218267.6      -887.88305    
    285200   302.27007     -218716.45      0             -218273.11     -1331.9554    
    285300   304.705       -218718.34      0             -218271.43     -1144.2776    
    285400   304.21197     -218712.07      0             -218265.88      585.98991    
    285500   309.28        -218714.81      0             -218261.19      301.71828    
    285600   305.71762     -218710.84      0             -218262.44      383.25871    
    285700   308.90699     -218718.13      0             -218265.05     -206.2326     
    285800   303.67739     -218715.99      0             -218270.58     -941.61645    
    285900   303.13622     -218717.16      0             -218272.54     -696.22772    
    286000   302.32811     -218713.77      0             -218270.34     -151.62385    
    286100   307.02137     -218711.32      0             -218261.01     -110.97988    
    286200   309.68823     -218713.85      0             -218259.63     -791.69312    
    286300   306.58784     -218714.86      0             -218265.19     -1042.54      
    286400   303.89034     -218714.56      0             -218268.84     -1386.451     
    286500   302.99175     -218713.24      0             -218268.84     -786.04012    
    286600   302.62758     -218712.14      0             -218268.28      149.97753    
    286700   307.69503     -218715.87      0             -218264.57     -1099.02      
    286800   311.39744     -218713.83      0             -218257.1      -510.75697    
    286900   305.84046     -218707.61      0             -218259.03      1708.5314    
    287000   305.6681      -218714.86      0             -218266.54     -782.27984    
    287100   304.6448      -218715.85      0             -218269.02      235.12651    
    287200   304.14849     -218715.11      0             -218269.01     -90.700738    
    287300   304.40249     -218713.71      0             -218267.24      1087.3165    
    287400   306.43446     -218711.17      0             -218261.72      347.43421    
    287500   308.94938     -218711.03      0             -218257.89     -207.08315    
    287600   306.87564     -218712.95      0             -218262.85     -1290.388     
    287700   301.7558      -218712.66      0             -218270.07     -627.89703    
    287800   302.75426     -218713.94      0             -218269.89     -395.10582    
    287900   305.41217     -218715.34      0             -218267.39     -536.82798    
    288000   306.13009     -218711.84      0             -218262.83     -604.49066    
    288100   307.89822     -218706.64      0             -218255.04      494.54864    
    288200   308.1963      -218708.95      0             -218256.91     -456.44967    
    288300   307.24525     -218717.23      0             -218266.59     -555.00473    
    288400   301.79274     -218711.97      0             -218269.32      294.07101    
    288500   303.91403     -218715.34      0             -218269.59     -16.593306    
    288600   303.72768     -218714.48      0             -218269         146.27489    
    288700   305.4848      -218714.63      0             -218266.57      5.8144366    
    288800   308.22332     -218713.02      0             -218260.95      1073.2396    
    288900   307.79217     -218712.31      0             -218260.86     -1809.3847    
    289000   304.00573     -218715.21      0             -218269.32     -1037.3339    
    289100   300.49761     -218713.01      0             -218272.27     -376.32532    
    289200   302.13773     -218712.44      0             -218269.29     -1087.8835    
    289300   304.55407     -218711.91      0             -218265.22     -355.28645    
    289400   307.03383     -218714.68      0             -218264.34      864.09361    
    289500   307.54024     -218721.22      0             -218270.14      388.19613    
    289600   304.53461     -218722.74      0             -218276.07      721.28417    
    289700   304.79217     -218720.49      0             -218273.44      329.45097    
    289800   303.20779     -218711.41      0             -218266.69     -85.860292    
    289900   307.8025      -218715.95      0             -218264.49      1784.7587    
    290000   307.30101     -218716.9       0             -218266.18      560.55586    
    290100   305.47201     -218719.01      0             -218270.97     -143.33802    
    290200   300.37775     -218720.7       0             -218280.13     -479.33747    
    290300   299.62666     -218721.36      0             -218281.9      -1463.3559    
    290400   303.44318     -218721.3       0             -218276.24     -1912.767     
    290500   302.25134     -218714.29      0             -218270.97     -579.68207    
    290600   306.99236     -218714.61      0             -218264.34     -690.60067    
    290700   306.25748     -218710.77      0             -218261.58      441.51194    
    290800   307.74429     -218715.3       0             -218263.93      668.78777    
    290900   303.8113      -218717.34      0             -218271.74      771.02816    
    291000   304.55018     -218718.9       0             -218272.21      989.8308     
    291100   305.95947     -218718.9       0             -218270.14      621.81518    
    291200   302.42496     -218712.4       0             -218268.83      28.12829     
    291300   305.06524     -218713.06      0             -218265.61     -31.265081    
    291400   304.13499     -218711.69      0             -218265.61     -516.26193    
    291500   303.28268     -218716.53      0             -218271.7      -685.77919    
    291600   298.99508     -218718.7       0             -218280.16     -844.90381    
    291700   300.78131     -218716.12      0             -218274.96     -777.77405    
    291800   305.04262     -218714.76      0             -218267.35     -1173.9931    
    291900   305.18092     -218710.98      0             -218263.37     -710.49925    
    292000   306.87366     -218711.78      0             -218261.69     -126.04082    
    292100   306.41194     -218714.93      0             -218265.51     -607.56444    
    292200   303.77418     -218719.23      0             -218273.68     -965.49138    
    292300   303.76401     -218717.94      0             -218272.4      -208.7554     
    292400   305.29108     -218715.34      0             -218267.57     -310.50781    
    292500   306.54259     -218714.58      0             -218264.97      572.01083    
    292600   305.67427     -218714.22      0             -218265.89      416.54025    
    292700   305.00541     -218714.2       0             -218266.85     -94.418695    
    292800   304.89434     -218714.67      0             -218267.48      1184.0363    
    292900   305.25828     -218716.3       0             -218268.57      738.74298    
    293000   304.17335     -218716.17      0             -218270.04      345.05406    
    293100   304.19564     -218716.01      0             -218269.84     -184.75354    
    293200   306.17415     -218716.48      0             -218267.41     -99.369447    
    293300   306.56749     -218714.08      0             -218264.43     -100.60602    
    293400   305.49733     -218711.06      0             -218262.98     -170.9259     
    293500   303.60002     -218711.26      0             -218265.96     -531.24399    
    293600   303.88379     -218718.59      0             -218272.88     -459.86983    
    293700   304.30413     -218720.02      0             -218273.69     -1413.76      
    293800   307.20644     -218716.72      0             -218266.13     -442.2059     
    293900   308.30513     -218713.9       0             -218261.7      -79.255506    
    294000   304.25848     -218710.64      0             -218264.38      617.08304    
    294100   301.47519     -218710.67      0             -218268.49     -293.77421    
    294200   304.4884      -218716.81      0             -218270.21     -926.95729    
    294300   303.76235     -218715.54      0             -218270.01     -306.10908    
    294400   301.64934     -218709.32      0             -218266.89      584.57073    
    294500   305.90162     -218710.66      0             -218261.99     -38.053299    
    294600   307.26292     -218713.18      0             -218262.51      565.36153    
    294700   307.01937     -218720.03      0             -218269.72     -756.54166    
    294800   306.75001     -218721.88      0             -218271.97     -361.14136    
    294900   301.96163     -218713.25      0             -218270.36     -1133.6333    
    295000   303.46672     -218712.8       0             -218267.7      -1283.5741    
    295100   306.78695     -218714.75      0             -218264.78     -214.8572     
    295200   304.2546      -218711.91      0             -218265.65     -727.71266    
    295300   304.17793     -218712.56      0             -218266.42     -1698.9159    
    295400   303.66048     -218712.61      0             -218267.23     -964.2958     
    295500   305.79204     -218717.03      0             -218268.52     -672.14182    
    295600   305.20483     -218719.64      0             -218271.99     -362.35307    
    295700   303.35161     -218720.2       0             -218275.27     -507.94766    
    295800   306.90344     -218720.96      0             -218270.82     -622.79989    
    295900   307.06317     -218713.61      0             -218263.24      273.14993    
    296000   304.89163     -218710.43      0             -218263.24     -734.7906     
    296100   302.77667     -218710.68      0             -218266.59     -211.20646    
    296200   308.35021     -218723.36      0             -218271.1      -612.84782    
    296300   303.05254     -218724.11      0             -218279.62     -593.08782    
    296400   301.07973     -218721.71      0             -218280.11     -1099.0919    
    296500   306.02215     -218717.29      0             -218268.44     -1079.3715    
    296600   306.22027     -218713.6       0             -218264.46     -1357.7833    
    296700   305.3948      -218710.07      0             -218262.14      106.61462    
    296800   308.02898     -218717.22      0             -218265.43     -145.84739    
    296900   305.29089     -218719.56      0             -218271.79     -481.34979    
    297000   305.78433     -218720.2       0             -218271.7      -1111.0587    
    297100   306.50561     -218716.82      0             -218267.26     -975.35956    
    297200   310.85135     -218713.98      0             -218258.05     -153.3795     
    297300   310.23566     -218714.47      0             -218259.44      170.55955    
    297400   305.43088     -218713.24      0             -218265.26      353.49487    
    297500   308.50028     -218721.45      0             -218268.96     -771.67009    
    297600   304.73034     -218717.93      0             -218270.98     -637.16776    
    297700   307.33062     -218717.75      0             -218266.98     -1203.944     
    297800   306.46316     -218706.99      0             -218257.5       457.72986    
    297900   308.57272     -218709.64      0             -218257.05      182.58028    
    298000   303.88891     -218707.97      0             -218262.25     -945.28907    
    298100   303.9769      -218711.26      0             -218265.41      90.442136    
    298200   303.13957     -218712.69      0             -218268.07      305.56567    
    298300   300.91195     -218713.01      0             -218271.66     -340.88207    
    298400   301.68891     -218720.15      0             -218277.66      569.87444    
    298500   298.22065     -218717.5       0             -218280.1      -5.7615456    
    298600   303.09582     -218715.33      0             -218270.77     -416.79614    
    298700   304.38504     -218712.97      0             -218266.53     -758.95588    
    298800   302.53892     -218709         0             -218265.26     -373.81413    
    298900   307.99069     -218717.61      0             -218265.88      138.45105    
    299000   304.83732     -218717.3       0             -218270.19     -911.8143     
    299100   303.5999      -218721.42      0             -218276.13     -91.299789    
    299200   302.16697     -218717.07      0             -218273.88      656.95894    
    299300   305.33588     -218713.77      0             -218265.93      229.25153    
    299400   307.42277     -218715.72      0             -218264.82      585.97952    
    299500   308.15468     -218717.9       0             -218265.92     -449.38064    
    299600   304.79602     -218716.74      0             -218269.69     -654.12942    
    299700   302.18937     -218719.22      0             -218275.99      176.46126    
    299800   301.36094     -218715.35      0             -218273.34      97.028734    
    299900   303.48983     -218709.27      0             -218264.13      181.08942    
    300000   306.74066     -218714.01      0             -218264.11     -637.56755    
    300100   304.74902     -218712.42      0             -218265.44     -774.23748    
    300200   306.93597     -218720.3       0             -218270.11      683.91957    
    300300   302.68266     -218720         0             -218276.05      258.17066    
    300400   303.38831     -218718.11      0             -218273.12      455.13775    
    300500   306.95244     -218713.62      0             -218263.41     -252.04564    
    300600   308.83124     -218716.26      0             -218263.29     -706.10676    
    300700   303.93239     -218712.53      0             -218266.74     -2.4424565    
    300800   303.17642     -218715.67      0             -218271        -112.22157    
    300900   301.35834     -218714.95      0             -218272.94     -419.31472    
    301000   307.34779     -218716.82      0             -218266.03     -606.3827     
    301100   308.81007     -218713.89      0             -218260.96     -222.91572    
    301200   303.96504     -218709.16      0             -218263.33     -545.99022    
    301300   305.88598     -218716.28      0             -218267.63     -503.04761    
    301400   307.54211     -218719.7       0             -218268.63     -617.2978     
    301500   305.65891     -218716.13      0             -218267.81     -844.09475    
    301600   306.96604     -218716.39      0             -218266.15     -669.28637    
    301700   306.63173     -218712.99      0             -218263.25     -583.67589    
    301800   309.33375     -218713.77      0             -218260.07      375.67642    
    301900   305.01906     -218711.72      0             -218264.35     -1444.838     
    302000   302.26541     -218714.62      0             -218271.28      109.75988    
    302100   303.09889     -218716.73      0             -218272.17     -377.53108    
    302200   306.71445     -218718.02      0             -218268.16      912.92006    
    302300   310.87266     -218716.92      0             -218260.96     -935.72666    
    302400   310.21849     -218709.11      0             -218254.11     -612.08941    
    302500   308.79501     -218705.02      0             -218252.11     -644.13958    
    302600   307.21908     -218713.04      0             -218262.43     -458.49602    
    302700   305.37945     -218716.23      0             -218268.33     -249.05008    
    302800   305.56666     -218718.8       0             -218270.63      222.0179     
    302900   305.65905     -218719.07      0             -218270.76     -421.68527    
    303000   301.49564     -218709.93      0             -218267.72     -363.0817     
    303100   307.4405      -218712.45      0             -218261.52     -668.74077    
    303200   307.18709     -218710.92      0             -218260.37     -597.80261    
    303300   302.90283     -218713.74      0             -218269.46     -463.8081     
    303400   302.73856     -218717.35      0             -218273.31      1021.6428    
    303500   305.44444     -218718.52      0             -218270.52     -710.56699    
    303600   306.62722     -218714.19      0             -218264.46     -773.61935    
    303700   308.02684     -218714.21      0             -218262.42     -1858.9158    
    303800   308.11883     -218716.09      0             -218264.17     -1567.0079    
    303900   304.30751     -218713.27      0             -218266.94     -216.77247    
    304000   305.58002     -218716.06      0             -218267.86     -321.39234    
    304100   304.34588     -218714.29      0             -218267.9      -79.999567    
    304200   305.04829     -218712.96      0             -218265.54      854.01103    
    304300   306.14447     -218710.81      0             -218261.78      142.42944    
    304400   308.00491     -218712.2       0             -218260.44      578.18446    
    304500   306.55901     -218717.5       0             -218267.87     -511.58758    
    304600   302.98829     -218716.91      0             -218272.51     -583.99022    
    304700   305.04861     -218717.64      0             -218270.22     -401.46656    
    304800   305.88384     -218714         0             -218265.35     -790.17083    
    304900   307.79747     -218710.9       0             -218259.45      98.079277    
    305000   309.55259     -218706.71      0             -218252.68     -377.74803    
    305100   312.87604     -218710.66      0             -218251.76      548.82515    
    305200   302.81406     -218706.29      0             -218262.14      254.3715     
    305300   302.39798     -218710.43      0             -218266.9      -581.98337    
    305400   301.14652     -218713.01      0             -218271.31     -702.48467    
    305500   300.25395     -218714.39      0             -218274        -1715.9893    
    305600   304.54896     -218714.94      0             -218268.25     -780.75556    
    305700   309.48818     -218715.95      0             -218262.02     -728.37704    
    305800   306.83132     -218713.69      0             -218263.66      107.59857    
    305900   303.98824     -218714.1       0             -218268.24      99.329704    
    306000   302.08901     -218714.33      0             -218271.25     -95.160722    
    306100   304.72201     -218718.86      0             -218271.92      971.81577    
    306200   306.33381     -218716.23      0             -218266.92     -237.3938     
    306300   306.57155     -218710.9       0             -218261.25     -153.29133    
    306400   306.95278     -218711.5       0             -218261.28     -772.65597    
    306500   303.07488     -218712.55      0             -218268.03     -996.06273    
    306600   304.53701     -218718.33      0             -218271.66     -145.84018    
    306700   301.79021     -218713.65      0             -218271.01     -52.538248    
    306800   307.0327      -218715.41      0             -218265.08     -7.9850869    
    306900   309.60146     -218715.08      0             -218260.99      767.2414     
    307000   307.16971     -218713.14      0             -218262.6       173.10698    
    307100   306.55787     -218714.55      0             -218264.92      193.48045    
    307200   303.09353     -218711.83      0             -218267.28     -132.03567    
    307300   305.98332     -218718.38      0             -218269.59      1112.5022    
    307400   301.32319     -218713.62      0             -218271.66     -87.861148    
    307500   301.86402     -218712.6       0             -218269.85      59.957925    
    307600   307.90916     -218714.79      0             -218263.18     -298.99107    
    307700   307.3226      -218710.38      0             -218259.62      281.47432    
    307800   306.49729     -218713.39      0             -218263.85      681.11236    
    307900   304.96653     -218719.1       0             -218271.8      -259.62203    
    308000   306.80733     -218720.81      0             -218270.81     -1179.7039    
    308100   306.40998     -218716.96      0             -218267.54     -985.72159    
    308200   306.3879      -218711.52      0             -218262.14      252.2302     
    308300   306.29078     -218709.83      0             -218260.59      27.813751    
    308400   303.58514     -218714.14      0             -218268.87     -109.48977    
    308500   302.35569     -218717.78      0             -218274.31      135.59969    
    308600   302.72052     -218715.41      0             -218271.4      -137.99155    
    308700   303.19269     -218710.98      0             -218266.29     -875.20486    
    308800   304.49773     -218710.28      0             -218263.67     -124.49863    
    308900   305.75405     -218713.42      0             -218264.96     -422.10754    
    309000   308.62467     -218718.88      0             -218266.22     -130.30701    
    309100   304.60756     -218714.8       0             -218268.03     -1373.5883    
    309200   307.09389     -218718.87      0             -218268.45     -934.9608     
    309300   308.68412     -218719.35      0             -218266.59     -1058.6523    
    309400   307.343       -218710.81      0             -218260.03     -801.07427    
    309500   306.70991     -218707.18      0             -218257.32     -165.97979    
    309600   306.9884      -218713.23      0             -218262.97     -489.43818    
    309700   303.98415     -218715.88      0             -218270.02     -1285.75      
    309800   303.77746     -218715.59      0             -218270.04     -312.66948    
    309900   305.22202     -218715.25      0             -218267.58     -263.75893    
    310000   304.1559      -218708.19      0             -218262.08     -1987.6201    
    310100   306.68841     -218705.8       0             -218255.97     -494.9865     
    310200   306.92956     -218710.13      0             -218259.95     -886.84657    
    310300   302.09961     -218711.85      0             -218268.75      865.28928    
    310400   305.03362     -218717.66      0             -218270.26      292.55004    
    310500   305.4454      -218718.3       0             -218270.3      -62.302879    
    310600   307.51046     -218717         0             -218265.97     -629.144      
    310700   303.60694     -218705.71      0             -218260.4      -987.59942    
    310800   306.96565     -218708.97      0             -218258.74     -1055.6248    
    310900   304.3043      -218715.19      0             -218268.86     -581.19253    
    311000   302.27942     -218715.27      0             -218271.92     -151.96353    
    311100   304.05479     -218715.77      0             -218269.8      -656.65356    
    311200   303.2347      -218708.63      0             -218263.87     -811.88964    
    311300   306.75563     -218710.76      0             -218260.84     -706.56991    
    311400   304.6721      -218712.34      0             -218265.47     -1558.4478    
    311500   304.11814     -218715.76      0             -218269.7      -1369.8308    
    311600   302.80851     -218713.81      0             -218269.68     -188.30447    
    311700   307.44813     -218719.41      0             -218268.47     -864.83067    
    311800   305.35801     -218713.62      0             -218265.75     -256.13722    
    311900   309.09038     -218714.22      0             -218260.87     -932.09184    
    312000   304.99953     -218707.86      0             -218260.51     -694.21844    
    312100   306.08907     -218718.32      0             -218269.38     -705.49566    
    312200   301.29971     -218715.05      0             -218273.13      23.805477    
    312300   300.5065      -218711.68      0             -218270.93     -1549.1527    
    312400   305.95606     -218712.77      0             -218264.02     -1581.1997    
    312500   303.9638      -218708.7       0             -218262.87      29.309034    
    312600   303.7635      -218710.48      0             -218264.94     -218.30375    
    312700   304.90251     -218714.13      0             -218266.93     -569.72283    
    312800   304.51706     -218715.25      0             -218268.61     -754.87663    
    312900   304.87831     -218717.96      0             -218270.79     -480.36685    
    313000   305.03989     -218714.94      0             -218267.54     -430.15915    
    313100   307.42827     -218710.65      0             -218259.74     -1352.8009    
    313200   305.3664      -218709.03      0             -218261.15     -121.26344    
    313300   304.4623      -218714.5       0             -218267.94      104.43393    
    313400   304.9944      -218718.65      0             -218271.31     -338.17691    
    313500   303.02371     -218715.47      0             -218271.02     -390.93353    
    313600   305.26955     -218714.71      0             -218266.96     -266.16649    
    313700   305.75577     -218705.47      0             -218257.01     -211.10008    
    313800   309.90793     -218711.08      0             -218256.53     -1848.1268    
    313900   307.32787     -218712.2       0             -218261.44     -1669.1743    
    314000   309.15076     -218721.68      0             -218268.24      15.843895    
    314100   304.80514     -218718.12      0             -218271.05      133.96123    
    314200   306.27824     -218718.67      0             -218269.44     -390.57213    
    314300   304.84794     -218710.18      0             -218263.06      132.77118    
    314400   310.51391     -218712.45      0             -218257.01     -563.31436    
    314500   307.8503      -218712.52      0             -218261        -557.55665    
    314600   306.93347     -218715.33      0             -218265.14     -485.75049    
    314700   304.76097     -218715.74      0             -218268.74     -2374.4107    
    314800   304.42226     -218716.26      0             -218269.76     -1104.1685    
    314900   302.67154     -218713.4       0             -218269.47     -1152.7238    
    315000   305.16007     -218710.47      0             -218262.88     -886.21631    
    315100   306.70559     -218709.49      0             -218259.64     -196.44197    
    315200   306.17785     -218713.24      0             -218264.17     -28.964105    
    315300   301.46163     -218713.98      0             -218271.82     -26.308344    
    315400   302.48355     -218715.28      0             -218271.62      3.2769483    
    315500   304.77315     -218715.27      0             -218268.25     -735.81078    
    315600   306.60417     -218713.59      0             -218263.89     -1256.7522    
    315700   309.50309     -218714.31      0             -218260.36     -661.00166    
    315800   308.94671     -218710.55      0             -218257.41      310.71858    
    315900   306.29089     -218712.39      0             -218263.15     -525.56949    
    316000   301.70254     -218712.25      0             -218269.74     -686.29221    
    316100   305.49352     -218718.93      0             -218270.86      161.81959    
    316200   304.19737     -218716.38      0             -218270.21     -204.91057    
    316300   303.86002     -218710.89      0             -218265.21     -1535.9342    
    316400   313.06358     -218717.62      0             -218258.44      529.40201    
    316500   308.02555     -218712.95      0             -218261.16      959.99406    
    316600   306.93519     -218717.5       0             -218267.31     -614.52437    
    316700   302.26784     -218712.87      0             -218269.53     -1076.4756    
    316800   305.57196     -218717.31      0             -218269.12      390.69094    
    316900   301.28972     -218709.15      0             -218267.24     -1417.988     
    317000   309.45927     -218714.56      0             -218260.67     -534.40701    
    317100   309.31457     -218712         0             -218258.32     -536.86041    
    317200   305.56675     -218715.23      0             -218267.05     -954.19592    
    317300   303.17876     -218716.68      0             -218272        -1195.878     
    317400   303.45143     -218716.21      0             -218271.13     -584.31995    
    317500   305.02151     -218713.12      0             -218265.74     -1102.8331    
    317600   309.97148     -218715.61      0             -218260.97     -787.91391    
    317700   309.82117     -218711.48      0             -218257.06      12.956818    
    317800   307.94757     -218707.56      0             -218255.89     -350.2027     
    317900   306.49261     -218714.58      0             -218265.04     -888.68774    
    318000   303.71051     -218715.35      0             -218269.9      -483.47138    
    318100   303.13569     -218715.35      0             -218270.74      140.58091    
    318200   304.44313     -218713.48      0             -218266.95     -161.94814    
    318300   308.60901     -218713.03      0             -218260.39      312.82058    
    318400   308.62142     -218713.65      0             -218260.99     -617.06243    
    318500   304.28468     -218715.21      0             -218268.91     -838.88514    
    318600   303.85474     -218716.4       0             -218270.73     -220.68144    
    318700   304.60528     -218716.38      0             -218269.62     -62.324766    
    318800   308.43747     -218718.37      0             -218265.98     -592.11606    
    318900   305.44444     -218710.82      0             -218262.82     -1316.5643    
    319000   306.98786     -218711.85      0             -218261.59     -760.5748     
    319100   308.37004     -218719.01      0             -218266.72     -718.6434     
    319200   303.07306     -218717.37      0             -218272.85     -629.02978    
    319300   303.25023     -218717.99      0             -218273.21     -1227.4059    
    319400   307.34799     -218718.5       0             -218267.71     -586.97445    
    319500   305.46684     -218708.29      0             -218260.26     -60.017123    
    319600   306.86818     -218711.34      0             -218261.25     -13.568837    
    319700   304.99453     -218713.07      0             -218265.73     -714.7471     
    319800   302.53841     -218713.12      0             -218269.39      147.17678    
    319900   307.05739     -218720.56      0             -218270.2      -678.4049     
    320000   303.25644     -218714.32      0             -218269.53     -113.87574    
    320100   305.66914     -218710.92      0             -218262.59     -806.29794    
    320200   307.76082     -218707.56      0             -218256.16     -100.08498    
    320300   307.5538      -218713.23      0             -218262.13     -783.52061    
    320400   307.87573     -218719.25      0             -218267.68     -490.91663    
    320500   306.31393     -218719.65      0             -218270.37     -1342.6925    
    320600   303.26194     -218715.28      0             -218270.48     -1144.5439    
    320700   303.49866     -218708.85      0             -218263.7      -868.27453    
    320800   307.59465     -218709.85      0             -218258.69     -1297.5098    
    320900   307.43122     -218713.15      0             -218262.23      500.51671    
    321000   307.29185     -218718.33      0             -218267.62      588.26336    
    321100   304.65743     -218715.83      0             -218268.98     -496.77416    
    321200   301.73798     -218711.74      0             -218269.18     -266.32486    
    321300   304.93874     -218714.92      0             -218267.66     -977.1946     
    321400   305.75835     -218709.38      0             -218260.92     -130.29314    
    321500   306.5029      -218708.62      0             -218259.06     -830.97255    
    321600   303.4461      -218711.8       0             -218266.73     -386.61022    
    321700   304.74482     -218717.33      0             -218270.35     -1542.6831    
    321800   302.03746     -218713.57      0             -218270.57     -1720.6896    
    321900   307.56789     -218718.23      0             -218267.12     -980.53196    
    322000   307.60258     -218712.63      0             -218261.47     -207.04728    
    322100   306.67957     -218706.19      0             -218256.38     -104.092      
    322200   306.5487      -218713.05      0             -218263.43      249.97032    
    322300   306.43787     -218719.43      0             -218269.97     -412.06303    
    322400   303.59816     -218716.94      0             -218271.65      1221.7558    
    322500   304.63595     -218716.36      0             -218269.55     -255.49533    
    322600   308.94813     -218716.71      0             -218263.57     -774.03747    
    322700   307.50546     -218710.48      0             -218259.46      330.4369     
    322800   303.20691     -218710.59      0             -218265.87     -1078.9279    
    322900   304.20556     -218718.33      0             -218272.15     -752.31016    
    323000   303.71363     -218718.05      0             -218272.58      337.64698    
    323100   302.73012     -218713.46      0             -218269.45     -913.20746    
    323200   309.02395     -218715.57      0             -218262.32     -1110.3878    
    323300   304.95745     -218710.38      0             -218263.1      -660.65889    
    323400   306.93134     -218716.6       0             -218266.42      41.748517    
    323500   307.82429     -218720.35      0             -218268.86      342.61091    
    323600   306.14925     -218718.59      0             -218269.56      768.6915     
    323700   307.3641      -218718.83      0             -218268.02      270.38059    
    323800   307.5856      -218716.4       0             -218265.26     -1025.1996    
    323900   306.70645     -218709.04      0             -218259.18     -163.23081    
    324000   306.18007     -218707.35      0             -218258.27      60.017282    
    324100   306.23663     -218716         0             -218266.84     -501.04274    
    324200   305.77727     -218718.52      0             -218270.03     -888.27325    
    324300   305.60703     -218719.1       0             -218270.87     -203.6248     
    324400   305.75491     -218716.44      0             -218267.99     -1432.681     
    324500   308.04368     -218712.97      0             -218261.16     -642.4083     
    324600   308.6285      -218709.41      0             -218256.74     -1123.9166    
    324700   303.07885     -218708.54      0             -218264.01     -2001.5499    
    324800   305.77206     -218718.14      0             -218269.66     -752.92089    
    324900   303.59836     -218715.1       0             -218269.8      -418.23615    
    325000   302.17626     -218710.74      0             -218267.53     -150.83243    
    325100   308.45868     -218714.86      0             -218262.44     -578.32008    
    325200   308.67005     -218713.72      0             -218260.98     -828.19234    
    325300   305.18885     -218715.03      0             -218267.41     -111.16987    
    325400   302.61861     -218717.73      0             -218273.87     -1319.9633    
    325500   305.93639     -218721.29      0             -218272.56     -106.49707    
    325600   307.74714     -218717.91      0             -218266.53     -1312.4367    
    325700   308.76414     -218715.11      0             -218262.24     -281.51544    
    325800   307.9332      -218715.23      0             -218263.58     -1612.2354    
    325900   306.02407     -218714.75      0             -218265.9      -790.74554    
    326000   301.645       -218712.57      0             -218270.14     -105.27948    
    326100   304.43042     -218720.25      0             -218273.74     -580.86635    
    326200   302.0723      -218713.48      0             -218270.42     -320.2537     
    326300   305.84322     -218710.38      0             -218261.8      -536.2221     
    326400   304.26792     -218708.71      0             -218262.43     -463.35214    
    326500   306.56131     -218717.81      0             -218268.17     -668.82079    
    326600   301.74538     -218715.57      0             -218273         214.43802    
    326700   302.69262     -218716.8       0             -218272.84     -945.79536    
    326800   302.64056     -218713.27      0             -218269.38     -393.6317     
    326900   306.7823      -218717.7       0             -218267.74     -249.92367    
    327000   303.18247     -218712.9       0             -218268.22     -683.60651    
    327100   301.73939     -218711.39      0             -218268.83     -1277.1525    
    327200   304.47709     -218716.13      0             -218269.55      398.15556    
    327300   303.3978      -218714.05      0             -218269.05      122.28992    
    327400   305.16677     -218714.32      0             -218266.72     -65.835551    
    327500   306.9969      -218713.97      0             -218263.69     -341.66103    
    327600   309.59354     -218715.99      0             -218261.9      -726.30965    
    327700   303.64162     -218712.37      0             -218267.01     -1566.4593    
    327800   303.75504     -218719.24      0             -218273.72     -828.71707    
    327900   302.50448     -218716.33      0             -218272.64     -406.98427    
    328000   306.03921     -218716.86      0             -218267.99     -1429.3458    
    328100   305.92154     -218712.42      0             -218263.72     -408.02316    
    328200   309.49912     -218714.58      0             -218260.63      170.74291    
    328300   307.13204     -218707.32      0             -218256.84      382.00133    
    328400   306.63782     -218711.1       0             -218261.35     -342.14974    
    328500   304.6816      -218716.12      0             -218269.24      13.373543    
    328600   303.39181     -218717.18      0             -218272.19     -1302.3435    
    328700   301.94405     -218713.44      0             -218270.57     -486.16016    
    328800   305.3624      -218712.35      0             -218264.47      93.708208    
    328900   309.3671      -218713.31      0             -218259.56      295.68015    
    329000   305.53912     -218710.45      0             -218262.31     -497.48796    
    329100   306.02145     -218715.83      0             -218266.99     -1076.0694    
    329200   306.07657     -218717.31      0             -218268.39     -160.72402    
    329300   305.69063     -218717.41      0             -218269.05     -630.56226    
    329400   302.46238     -218713.03      0             -218269.4       28.073293    
    329500   306.56188     -218717.51      0             -218267.87     -248.32803    
    329600   307.27891     -218714.88      0             -218264.18      1354.1638    
    329700   309.53555     -218717.41      0             -218263.41      773.00003    
    329800   310.9158      -218723.94      0             -218267.92      838.31662    
    329900   305.27715     -218721.73      0             -218273.97     -823.29808    
    330000   302.59226     -218716.66      0             -218272.84      559.66237    
    330100   306.45172     -218715.37      0             -218265.89     -1137.9908    
    330200   306.02375     -218711.46      0             -218262.61     -558.52281    
    330300   304.88519     -218711.7       0             -218264.52     -496.71056    
    330400   303.82206     -218713.41      0             -218267.79     -273.26004    
    330500   303.06752     -218715.97      0             -218271.45     -1242.7901    
    330600   304.44192     -218722.9       0             -218276.37     -1390.1152    
    330700   300.9824      -218720.51      0             -218279.05      175.45213    
    330800   302.86602     -218714.79      0             -218270.58     -126.92747    
    330900   304.80846     -218713.13      0             -218266.07     -598.76288    
    331000   308.00289     -218716.24      0             -218264.49     -770.73831    
    331100   304.55651     -218714.15      0             -218267.46     -895.7197     
    331200   301.4354      -218716.77      0             -218274.65     -58.761143    
    331300   298.99981     -218716.08      0             -218277.54     -764.88676    
    331400   308.36885     -218724.22      0             -218271.93     -691.2318     
    331500   306.14035     -218717.84      0             -218268.82      115.41402    
    331600   308.49508     -218719.86      0             -218267.39     -62.713106    
    331700   306.29372     -218715.92      0             -218266.68     -930.88029    
    331800   307.14801     -218714.85      0             -218264.36     -757.5801     
    331900   305.20905     -218711.19      0             -218263.54     -752.86561    
    332000   305.88124     -218713.94      0             -218265.3      -1238.9141    
    332100   301.85883     -218714.7       0             -218271.96     -1071.1999    
    332200   301.439       -218716.05      0             -218273.93     -926.00522    
    332300   305.19842     -218715.83      0             -218268.19      439.64954    
    332400   308.07408     -218712.92      0             -218261.07     -1201.4622    
    332500   308.56765     -218714.97      0             -218262.39      57.219894    
    332600   305.80553     -218715.66      0             -218267.13     -512.97424    
    332700   302.09301     -218712.82      0             -218269.74     -1636.1482    
    332800   306.92121     -218720.79      0             -218270.63     -558.6        
    332900   303.0419      -218717.27      0             -218272.79     -207.93362    
    333000   300.49599     -218714.2       0             -218273.45     -785.80773    
    333100   304.90451     -218715.7       0             -218268.5      -1135.1786    
    333200   305.7568      -218711.7       0             -218263.25      19.894685    
    333300   306.75232     -218711.86      0             -218261.94     -7.0049587    
    333400   304.10476     -218714.04      0             -218268.01     -1657.2825    
    333500   298.5821      -218712.9       0             -218274.97     -305.84444    
    333600   305.41453     -218720.9       0             -218272.95     -192.96043    
    333700   306.61116     -218717.96      0             -218268.24     -125.09046    
    333800   309.79375     -218719.91      0             -218265.53      142.57994    
    333900   302.93407     -218709.52      0             -218265.2       2.3838436    
    334000   306.36331     -218715         0             -218265.66     -414.40286    
    334100   302.81869     -218711.5       0             -218267.36     -418.63657    
    334200   305.57665     -218716.27      0             -218268.08      80.66451     
    334300   306.94059     -218719.43      0             -218269.23     -502.46313    
    334400   300.29506     -218716         0             -218275.55     -676.5587     
    334500   301.94052     -218720.92      0             -218278.06     -607.04616    
    334600   303.92973     -218716.54      0             -218270.76     -1339.2576    
    334700   306.64629     -218715.49      0             -218265.73     -607.71141    
    334800   307.72668     -218716.29      0             -218264.94     -1362.2752    
    334900   303.51595     -218713.89      0             -218268.72      270.64723    
    335000   301.72572     -218716.5       0             -218273.95     -852.37052    
    335100   301.11878     -218720.39      0             -218278.74     -295.54855    
    335200   301.41404     -218719.95      0             -218277.86      344.43786    
    335300   302.64309     -218712.14      0             -218268.25     -48.737382    
    335400   304.2966      -218711.2       0             -218264.88     -964.0656     
    335500   304.98091     -218712.62      0             -218265.3      -655.21452    
    335600   305.18382     -218716.46      0             -218268.85     -364.62175    
    335700   301.43851     -218716.32      0             -218274.2      -1274.4878    
    335800   302.03024     -218718.74      0             -218275.75     -1095.1937    
    335900   306.08427     -218716.4       0             -218267.46     -781.67915    
    336000   305.71631     -218711.21      0             -218262.81      731.30328    
    336100   304.20477     -218709.91      0             -218263.73     -137.98112    
    336200   303.46253     -218715.25      0             -218270.15     -695.22675    
    336300   302.80716     -218718.06      0             -218273.93     -397.42209    
    336400   304.26515     -218719.39      0             -218273.12     -11.545681    
    336500   306.88423     -218720.9       0             -218270.79     -574.08123    
    336600   300.30982     -218709.7       0             -218269.23     -216.39436    
    336700   305.60245     -218714.07      0             -218265.84     -1073.4037    
    336800   304.24055     -218711.1       0             -218264.86     -220.02896    
    336900   303.35047     -218712.32      0             -218267.39     -360.76703    
    337000   302.75257     -218717.12      0             -218273.07     -210.33731    
    337100   302.40632     -218719.31      0             -218275.77     -257.49518    
    337200   303.78775     -218715.53      0             -218269.96     -116.82525    
    337300   307.53888     -218714.94      0             -218263.87     -116.93355    
    337400   305.8412      -218714.3       0             -218265.72      367.00981    
    337500   306.01076     -218719.33      0             -218270.5       1199.3539    
    337600   304.30213     -218719.96      0             -218273.64     -655.00996    
    337700   304.97844     -218718.16      0             -218270.84     -680.36751    
    337800   309.79568     -218714.15      0             -218259.77     -362.36122    
    337900   309.00118     -218713.26      0             -218260.05     -1150.1081    
    338000   306.64217     -218716.2       0             -218266.45     -290.04941    
    338100   306.00223     -218720.41      0             -218271.59     -855.17344    
    338200   305.69483     -218720.48      0             -218272.12     -915.87461    
    338300   301.47585     -218711.28      0             -218269.1      -691.37014    
    338400   305.96079     -218709.22      0             -218260.47     -1108.3372    
    338500   305.85581     -218706.9       0             -218258.3      -447.50032    
    338600   306.97439     -218712.6       0             -218262.36     -551.19896    
    338700   304.63638     -218713.44      0             -218266.63     -204.47542    
    338800   303.89874     -218714.63      0             -218268.9      -439.31059    
    338900   304.93936     -218717.04      0             -218269.78     -963.02615    
    339000   302.33671     -218715.96      0             -218272.52     -1266.0224    
    339100   302.52329     -218719.43      0             -218275.71     -804.69781    
    339200   303.78021     -218718.66      0             -218273.1      -581.29986    
    339300   305.03636     -218712.7       0             -218265.3      -249.45888    
    339400   305.93283     -218712.61      0             -218263.9      -312.44594    
    339500   304.06252     -218713.02      0             -218267.05      37.321558    
    339600   303.75614     -218717.87      0             -218272.34     -261.94641    
    339700   300.11497     -218721.38      0             -218281.19     -570.51692    
    339800   302.93236     -218724.16      0             -218279.84      384.17524    
    339900   302.69024     -218717.94      0             -218273.98     -1074.4192    
    340000   304.41032     -218715.42      0             -218268.94     -675.70723    
    340100   308.06472     -218718.26      0             -218266.42     -863.89068    
    340200   306.17322     -218715.76      0             -218266.69     -1001.185     
    340300   304.50485     -218711.69      0             -218265.07      13.289792    
    340400   303.92196     -218709.53      0             -218263.76     -640.57469    
    340500   305.18384     -218713.63      0             -218266.01     -243.52948    
    340600   305.27984     -218720.45      0             -218272.69     -481.31316    
    340700   304.13943     -218720.98      0             -218274.89      76.418211    
    340800   307.17626     -218720.8       0             -218270.26      169.8673     
    340900   306.16164     -218711.01      0             -218261.95     -932.46725    
    341000   306.29711     -218712.38      0             -218263.13      236.5313     
    341100   306.91264     -218718.54      0             -218268.39     -360.43745    
    341200   304.30654     -218718.27      0             -218271.94     -139.23125    
    341300   303.34142     -218716.71      0             -218271.79     -761.4501     
    341400   306.53919     -218711.85      0             -218262.25     -693.20157    
    341500   308.38076     -218712.39      0             -218260.08     -897.80073    
    341600   307.33991     -218715.48      0             -218264.7      -123.14037    
    341700   302.67661     -218713.9       0             -218269.96      167.92186    
    341800   303.46601     -218715.56      0             -218270.46     -1348.849     
    341900   305.02615     -218716.18      0             -218268.8       59.837741    
    342000   304.56328     -218712.11      0             -218265.4      -224.75625    
    342100   311.20965     -218713.34      0             -218256.88     -924.752      
    342200   309.85873     -218714.33      0             -218259.85     -843.22219    
    342300   306.74607     -218715.99      0             -218266.08     -428.59236    
    342400   304.77684     -218715.53      0             -218268.51     -320.44687    
    342500   304.62754     -218716.46      0             -218269.66     -403.81946    
    342600   305.08144     -218718.63      0             -218271.16     -513.97833    
    342700   301.32351     -218715.42      0             -218273.47     -198.21158    
    342800   304.88596     -218718.71      0             -218271.53     -289.22546    
    342900   305.51374     -218713.67      0             -218265.57     -604.14622    
    343000   308.70091     -218714.92      0             -218262.14     -730.80782    
    343100   307.13619     -218717.12      0             -218266.64     -277.04461    
    343200   306.00295     -218723.6       0             -218274.78     -103.43372    
    343300   304.29149     -218719.98      0             -218273.67     -533.37519    
    343400   303.38182     -218715.11      0             -218270.14     -759.06556    
    343500   305.40545     -218713.46      0             -218265.52     -1329.3295    
    343600   306.72245     -218713.78      0             -218263.91     -945.19296    
    343700   303.23704     -218714.06      0             -218269.3      -570.94992    
    343800   304.33038     -218722.48      0             -218276.12     -606.52311    
    343900   305.72449     -218722.84      0             -218274.43     -491.69022    
    344000   303.03073     -218712.37      0             -218267.91     -571.46178    
    344100   307.60859     -218715.94      0             -218264.77      319.78799    
    344200   306.26556     -218714.52      0             -218265.31     -845.62972    
    344300   308.30465     -218720.03      0             -218267.83      689.25341    
    344400   303.09592     -218714         0             -218269.44     -188.35469    
    344500   307.5134      -218720.12      0             -218269.08     -284.36223    
    344600   304.34181     -218715.34      0             -218268.96     -853.11452    
    344700   304.57058     -218714.78      0             -218268.06     -1083.6112    
    344800   310.93597     -218717.43      0             -218261.37     -993.92056    
    344900   307.3411      -218710.55      0             -218259.77     -1514.0624    
    345000   305.20197     -218714.37      0             -218266.73     -403.33503    
    345100   305.32621     -218719.77      0             -218271.95     -144.39474    
    345200   303.63012     -218716.93      0             -218271.59      21.167923    
    345300   307.08221     -218717.77      0             -218267.36      44.500635    
    345400   305.62861     -218712.23      0             -218263.96     -1148.6903    
    345500   310.05502     -218711.01      0             -218256.25     -723.77825    
    345600   308.41671     -218708.34      0             -218255.98     -835.2281     
    345700   304.56802     -218711.93      0             -218265.21     -171.89416    
    345800   303.41131     -218714.07      0             -218269.05     -707.56447    
    345900   303.53893     -218717.34      0             -218272.13      363.27019    
    346000   302.68699     -218715.47      0             -218271.52     -210.2478     
    346100   305.1722      -218712.23      0             -218264.63      32.744302    
    346200   308.97533     -218713.18      0             -218260        -172.59199    
    346300   307.43546     -218714.05      0             -218263.13     -269.9709     
    346400   305.76608     -218715.32      0             -218266.85     -1318.2617    
    346500   305.26014     -218715.95      0             -218268.22      391.40587    
    346600   304.59141     -218716.74      0             -218269.99     -49.504249    
    346700   304.37052     -218718.24      0             -218271.81      34.783981    
    346800   302.67177     -218716.41      0             -218272.47      757.32953    
    346900   304.17012     -218715.4       0             -218269.27     -20.851689    
    347000   306.8703      -218714.17      0             -218264.08      499.07741    
    347100   302.43996     -218707.42      0             -218263.83     -942.05189    
    347200   303.05706     -218714.18      0             -218269.68     -1268.5108    
    347300   299.42783     -218715.45      0             -218276.28      51.515939    
    347400   303.54073     -218718.14      0             -218272.94      134.33821    
    347500   304.06623     -218714.17      0             -218268.2       241.47973    
    347600   306.97678     -218716.6       0             -218266.35     -966.8232     
    347700   303.89545     -218712.66      0             -218266.93      1123.8748    
    347800   305.65257     -218716.62      0             -218268.32     -130.02103    
    347900   302.9038      -218722.26      0             -218277.99     -282.27964    
    348000   300.91786     -218722.46      0             -218281.1      -602.31646    
    348100   300.41477     -218713.97      0             -218273.35     -488.67771    
    348200   304.30848     -218714.17      0             -218267.83      206.96531    
    348300   305.9372      -218715.18      0             -218266.46     -659.51837    
    348400   303.28492     -218711.54      0             -218266.71     -388.34147    
    348500   304.58382     -218716.98      0             -218270.25     -310.40304    
    348600   301.81404     -218718.53      0             -218275.86     -588.4479     
    348700   303.38542     -218721.26      0             -218276.28     -922.78077    
    348800   305.78816     -218715.81      0             -218267.31     -826.06448    
    348900   305.54985     -218712.84      0             -218264.68     -1219.4036    
    349000   303.2321      -218710.93      0             -218266.18     -206.3891     
    349100   303.83023     -218716.34      0             -218270.71      305.57705    
    349200   303.52783     -218721.93      0             -218276.74     -734.99654    
    349300   303.42213     -218723.97      0             -218278.94     -581.86668    
    349400   306.02081     -218717.42      0             -218268.57     -831.73785    
    349500   304.73049     -218711.44      0             -218264.49     -701.15116    
    349600   307.70812     -218716.74      0             -218265.42     -210.89538    
    349700   304.25354     -218716.33      0             -218270.08     -1231.3534    
    349800   302.57073     -218718.46      0             -218274.67     -191.60947    
    349900   302.90843     -218717.29      0             -218273.01     -1392.8552    
    350000   304.86513     -218709.98      0             -218262.82     -357.98625    
    350100   306.35511     -218711.96      0             -218262.63     -592.32287    
    350200   306.57859     -218717.1       0             -218267.44     -283.25284    
    350300   305.97363     -218720.04      0             -218271.26     -743.51525    
    350400   303.06978     -218716.47      0             -218271.95     -590.96048    
    350500   306.22518     -218717.13      0             -218267.99     -941.44367    
    350600   306.59313     -218707.21      0             -218257.53     -222.45395    
    350700   303.29786     -218705.87      0             -218261.02     -771.93257    
    350800   306.98023     -218718.12      0             -218267.87     -491.21254    
    350900   303.51058     -218716.37      0             -218271.2      -530.95275    
    351000   303.53745     -218717.71      0             -218272.5      -36.080536    
    351100   306.1524      -218716.29      0             -218267.25     -636.83689    
    351200   307.78401     -218710.5       0             -218259.07     -957.5832     
    351300   307.18245     -218711.98      0             -218261.43     -738.86942    
    351400   308.20346     -218719.25      0             -218267.2      -978.40338    
    351500   303.91523     -218715.19      0             -218269.43     -530.31022    
    351600   300.15867     -218709.51      0             -218269.26     -1523.8742    
    351700   304.67923     -218713.76      0             -218266.88     -1490.129     
    351800   309.09458     -218713.58      0             -218260.22     -1686.3672    
    351900   308.35467     -218712.43      0             -218260.16     -818.36325    
    352000   307.17207     -218718.69      0             -218268.15     -1254.7662    
    352100   304.27324     -218718.31      0             -218272.03     -967.42368    
    352200   305.79778     -218720.47      0             -218271.95     -491.88119    
    352300   302.89163     -218711.91      0             -218267.66      298.66104    
    352400   308.20283     -218713.34      0             -218261.3      -1187.1423    
    352500   306.87317     -218713.42      0             -218263.33     -379.16767    
    352600   306.07045     -218714.32      0             -218265.4      -692.83532    
    352700   305.21961     -218716.2       0             -218268.53     -537.26641    
    352800   302.47123     -218713.85      0             -218270.21     -145.41944    
    352900   308.24744     -218722.5       0             -218270.39     -19.620761    
    353000   303.99069     -218714.19      0             -218268.32     -520.26208    
    353100   307.6702      -218715.3       0             -218264.03      244.14413    
    353200   305.15491     -218711.43      0             -218263.86      290.87386    
    353300   305.28045     -218717.09      0             -218269.33     -519.88053    
    353400   305.29652     -218723.55      0             -218275.76     -335.29068    
    353500   303.85278     -218719.63      0             -218273.96     -751.02068    
    353600   305.61707     -218717.05      0             -218268.8      -426.49884    
    353700   305.76785     -218715.92      0             -218267.44      440.55536    
    353800   304.97255     -218714.87      0             -218267.56      293.48355    
    353900   307.81758     -218718.79      0             -218267.31      273.47015    
    354000   305.47722     -218719.42      0             -218271.37     -650.25489    
    354100   303.59232     -218724.58      0             -218279.3      -1634.5478    
    354200   303.62822     -218721.15      0             -218275.81     -888.10948    
    354300   305.08683     -218716.99      0             -218269.51     -237.68888    
    354400   309.71682     -218721.45      0             -218267.19      190.49818    
    354500   306.78636     -218717.34      0             -218267.37     -961.62651    
    354600   302.52337     -218712.97      0             -218269.25     -633.66613    
    354700   304.27684     -218720.31      0             -218274.02     -471.46825    
    354800   302.54404     -218721.64      0             -218277.89     -691.95339    
    354900   307.42631     -218722.56      0             -218271.65     -274.44836    
    355000   305.48176     -218714.34      0             -218266.28     -448.26814    
    355100   303.97659     -218711.92      0             -218266.07     -558.88826    
    355200   308.54788     -218720.13      0             -218267.58     -531.63962    
    355300   299.14576     -218713.05      0             -218274.29     -155.08129    
    355400   303.00937     -218723.2       0             -218278.77     -40.594018    
    355500   305.18853     -218720.22      0             -218272.59     -980.15075    
    355600   304.10561     -218710.75      0             -218264.71      15.687916    
    355700   305.02973     -218713.13      0             -218265.74     -933.76076    
    355800   305.90522     -218717.92      0             -218269.24     -537.68407    
    355900   301.97806     -218716.43      0             -218273.51      897.49238    
    356000   302.30748     -218718.92      0             -218275.52     -224.8541     
    356100   303.15888     -218714.67      0             -218270.02     -1315.7023    
    356200   309.20402     -218716.83      0             -218263.31      423.22739    
    356300   305.53424     -218713.06      0             -218264.93     -1235.2257    
    356400   304.61511     -218717.45      0             -218270.67     -845.31438    
    356500   303.86602     -218718.79      0             -218273.11     -352.57839    
    356600   304.28449     -218716.42      0             -218270.13     -134.0236     
    356700   308.49054     -218711.39      0             -218258.92      35.512228    
    356800   304.33694     -218707.5       0             -218261.12     -177.29422    
    356900   306.40389     -218717.53      0             -218268.13     -203.82285    
    357000   306.14591     -218720.36      0             -218271.33     -410.22765    
    357100   302.54019     -218715.57      0             -218271.83     -320.70863    
    357200   303.19102     -218710.62      0             -218265.93     -508.23076    
    357300   306.89502     -218709.43      0             -218259.3      -427.77261    
    357400   307.86835     -218714.27      0             -218262.71     -745.58246    
    357500   302.5679      -218711.31      0             -218267.53     -230.85119    
    357600   305.87912     -218718.49      0             -218269.85     -543.72345    
    357700   306.04796     -218718.73      0             -218269.84     -131.26621    
    357800   301.82662     -218714.11      0             -218271.42     -767.34261    
    357900   301.61392     -218714.77      0             -218272.38     -1254.1457    
    358000   303.94149     -218716.04      0             -218270.25      498.37838    
    358100   304.3818      -218712.38      0             -218265.94      46.657663    
    358200   302.77904     -218706.96      0             -218262.87     -1550.6804    
    358300   306.51949     -218712.95      0             -218263.38      382.58892    
    358400   305.36558     -218720.01      0             -218272.13     -962.58516    
    358500   304.82579     -218721.55      0             -218274.45     -441.57717    
    358600   302.25119     -218713.97      0             -218270.65     -672.83594    
    358700   303.38114     -218710.28      0             -218265.31      95.422201    
    358800   308.85011     -218714.83      0             -218261.84     -740.99605    
    358900   302.71414     -218714.4       0             -218270.4      -1130.1659    
    359000   301.75435     -218718.87      0             -218276.28     -205.60118    
    359100   304.02879     -218719.42      0             -218273.49      81.90156     
    359200   307.22626     -218718.01      0             -218267.4      -1186.6855    
    359300   303.97627     -218711.03      0             -218265.18      489.92019    
    359400   303.82708     -218710.29      0             -218264.67     -42.127653    
    359500   305.57991     -218718         0             -218269.8      -173.76035    
    359600   301.91725     -218718.79      0             -218275.96     -272.97381    
    359700   303.90824     -218719.52      0             -218273.78     -498.09218    
    359800   305.35286     -218714.58      0             -218266.71     -1178.6193    
    359900   305.25697     -218713.66      0             -218265.93     -1078.554     
    360000   303.12494     -218712.57      0             -218267.97     -915.53666    
    360100   301.49903     -218713.4       0             -218271.19     -489.06045    
    360200   302.02306     -218715.52      0             -218272.54     -1184.0514    
    360300   303.99381     -218719.07      0             -218273.19     -723.12969    
    360400   304.98423     -218717.47      0             -218270.15     -895.9885     
    360500   306.33751     -218714.56      0             -218265.25     -643.68576    
    360600   308.26172     -218716.85      0             -218264.72     -326.35425    
    360700   303.27212     -218715.76      0             -218270.95      181.13357    
    360800   303.20359     -218720.63      0             -218275.91      188.30609    
    360900   301.45705     -218715.83      0             -218273.68     -332.6571     
    361000   306.35796     -218715.61      0             -218266.27     -700.95132    
    361100   306.92051     -218715.17      0             -218265.01     -727.51532    
    361200   305.01058     -218715.48      0             -218268.11     -417.64711    
    361300   302.19714     -218715.44      0             -218272.21     -930.14464    
    361400   304.01278     -218719.84      0             -218273.94     -516.61499    
    361500   306.16934     -218718.41      0             -218269.34      278.10353    
    361600   307.49701     -218712.7       0             -218261.69     -229.64122    
    361700   303.92419     -218708.64      0             -218262.87     -282.65802    
    361800   306.54452     -218717.53      0             -218267.91     -233.40377    
    361900   305.73442     -218718.35      0             -218269.93     -1327.7038    
    362000   304.84213     -218716.57      0             -218269.46     -1718.8081    
    362100   305.43917     -218716.56      0             -218268.56     -87.829971    
    362200   306.63361     -218716.14      0             -218266.4       33.510062    
    362300   307.52713     -218712.19      0             -218261.13     -383.4329     
    362400   305.05642     -218707.9       0             -218260.47     -464.47026    
    362500   305.2483      -218715.66      0             -218267.95     -1030.8135    
    362600   300.78923     -218713.64      0             -218272.47     -418.04685    
    362700   304.24311     -218716.84      0             -218270.61     -778.06448    
    362800   308.59483     -218720.38      0             -218267.76      248.72852    
    362900   307.5581      -218711.57      0             -218260.47     -1695.5066    
    363000   308.21678     -218708.42      0             -218256.35     -721.03876    
    363100   306.1919      -218712.84      0             -218263.74      223.82979    
    363200   304.90661     -218713.92      0             -218266.71     -1012.8431    
    363300   304.74582     -218716.09      0             -218269.11     -687.81724    
    363400   304.4296      -218717.75      0             -218271.24     -747.59715    
    363500   302.56075     -218714.27      0             -218270.5      -324.98284    
    363600   308.42137     -218717.25      0             -218264.88     -1169.6501    
    363700   310.30042     -218715.49      0             -218260.37     -848.46541    
    363800   309.9714      -218718.14      0             -218263.5       482.15327    
    363900   305.37884     -218720.05      0             -218272.15     -754.90195    
    364000   304.86986     -218719.34      0             -218272.18     -1611.4024    
    364100   305.42897     -218717.12      0             -218269.14     -1618.1896    
    364200   307.00023     -218713.51      0             -218263.23     -886.42502    
    364300   308.61593     -218713.98      0             -218261.33     -907.89316    
    364400   308.10208     -218722.15      0             -218270.26      109.36649    
    364500   301.95739     -218718.27      0             -218275.38     -135.75578    
    364600   305.47612     -218720.06      0             -218272.01     -1383.3447    
    364700   306.15473     -218715.16      0             -218266.12     -402.25102    
    364800   309.75846     -218717.22      0             -218262.9      -304.65463    
    364900   306.56814     -218715.61      0             -218265.96     -370.6632     
    365000   303.25245     -218720.33      0             -218275.55      390.80206    
    365100   298.90803     -218714.13      0             -218275.71      444.22006    
    365200   301.57556     -218712.51      0             -218270.19     -879.03119    
    365300   307.34852     -218717.59      0             -218266.8      -52.716634    
    365400   305.80035     -218715.25      0             -218266.73     -761.87619    
    365500   305.2725      -218717.95      0             -218270.2      -572.67931    
    365600   302.27925     -218722.02      0             -218278.67     -545.6266     
    365700   301.21942     -218720.66      0             -218278.85     -376.78658    
    365800   305.84616     -218719.75      0             -218271.16     -205.8797     
    365900   306.13235     -218717.07      0             -218268.07     -1471.764     
    366000   303.2879      -218711.88      0             -218267.05     -1010.0549    
    366100   306.67561     -218716.22      0             -218266.42     -735.15242    
    366200   303.46418     -218715.17      0             -218270.07      107.12233    
    366300   299.18188     -218714.81      0             -218276         241.92197    
    366400   301.66513     -218717.74      0             -218275.28     -1785.9998    
    366500   306.94027     -218716.3       0             -218266.11     -1219.1335    
    366600   305.77897     -218712.3       0             -218263.81     -760.69466    
    366700   308.97335     -218719.08      0             -218265.91     -893.93651    
    366800   307.47126     -218722.1       0             -218271.13      476.90594    
    366900   304.53291     -218719.38      0             -218272.72      1373.2221    
    367000   305.6931      -218717.39      0             -218269.03      25.470273    
    367100   307.34424     -218710.63      0             -218259.85     -1688.8313    
    367200   309.80885     -218714.68      0             -218260.28     -697.25712    
    367300   306.85005     -218717.22      0             -218267.16     -289.56645    
    367400   307.97226     -218723.71      0             -218272.01     -422.7678     
    367500   304.53174     -218717.92      0             -218271.26     -410.51238    
    367600   302.86465     -218711.55      0             -218267.33     -1581.7897    
    367700   310.69921     -218713.66      0             -218257.96     -1143.5205    
    367800   307.15083     -218709.84      0             -218259.34     -274.59675    
    367900   307.07847     -218715.22      0             -218264.83     -761.61714    
    368000   304.35073     -218715.59      0             -218269.19      97.427945    
    368005   305.14229     -218716.87      0             -218269.32     -279.64174    
Loop time of 3304.27 on 8 procs for 345000 steps with 11348 atoms

Performance: 9.021 ns/day, 2.660 hours/ns, 104.410 timesteps/s
96.6% CPU use with 8 MPI tasks x 1 OpenMP threads

MPI task timing breakdown:
Section |  min time  |  avg time  |  max time  |%varavg| %total
---------------------------------------------------------------
Pair    | 1051.3     | 1095.6     | 1134.2     |  81.1 | 33.16
Kspace  | 1887.6     | 1925.5     | 1969.3     |  58.9 | 58.27
Neigh   | 126.96     | 130.95     | 133.83     |  18.4 |  3.96
Comm    | 98.235     | 103.25     | 107.74     |  31.1 |  3.12
Output  | 5.1305     | 5.3442     | 5.3781     |   3.5 |  0.16
Modify  | 31.911     | 32.313     | 32.804     |   4.9 |  0.98
Other   |            | 11.27      |            |       |  0.34

Nlocal:         1418.5 ave        1436 max        1396 min
Histogram: 1 0 1 0 1 1 1 2 0 1
Nghost:         3882.5 ave        3897 max        3847 min
Histogram: 1 0 0 0 0 0 2 1 2 2
Neighs:         105015 ave      109901 max      102062 min
Histogram: 1 1 1 2 1 1 0 0 0 1

Total # of neighbors = 840119
Ave neighs/atom = 74.032341
Neighbor list builds = 51162
Dangerous builds = 0

undump              1
unfix               1
unfix               RDF
uncompute           myRDF

print "Temp = ${Tmp}"
Temp = 305

variable Tmp delete
next a
jump SELF loop_start
print "loop body"
loop body
variable Tmp equal (${a}-1)*5+300
variable Tmp equal (3-1)*5+300

reset_timestep 0

velocity	all create 0.00001 87287

pair_style buck/coul/long 8.0
pair_coeff 1 1 0.0        1.0      0.0
pair_coeff 2 2 2029.2204  0.343645 192.58000
pair_coeff 3 3 0.0        1.0      0.0
pair_coeff 4 4 0.0        1.0      0.0
pair_coeff 1 2 41051.9380 0.151160 0.0000
pair_coeff 1 3 0.0        1.0      0.0
pair_coeff 1 4 0.0        1.0      0.0
pair_coeff 2 3 26655.4720 0.181968 86.5860
pair_coeff 2 4 17943.3840 0.226627 127.6500
pair_coeff 3 4 0.0        1.0      0.0
kspace_style pppm 1.0e-4

neighbor	0.3 bin
neigh_modify	every 1 delay 0 check yes

log log.lammps00_${Tmp}
log log.lammps00_310
